224
Lattice="11.4418383341252 0.0 0.0 -5.720919167162593 9.908922663345004 0.0 0.0 0.0 29.910172618718" Properties=species:S:1:pos:R:3:spacegroup_kinds:I:1 pbc="T T T"
K        0.00000000       3.30297422       6.16527841        0
K        0.00000000       3.30297422       1.31226474        1
K        2.86045958       1.65148711      13.64282157        2
K        2.86045958       1.65148711       8.78980790        3
K        0.00000000       0.00000000       3.73877158        4
K        0.00000000       0.00000000      11.21631473        5
Si       0.00000000       0.00000000       7.47754315        6
Si       0.00000000       0.00000000       0.00000000        7
N        0.00000000       3.30297422      11.21631473        8
N        2.86045958       1.65148711       3.73877158        9
O        1.76483271       2.28404758       3.73877158       10
O        2.86045958       0.38636616       3.73877158       11
O        1.09562688       2.67041375      11.21631473       12
O        0.00000000       4.56809517      11.21631473       13
O        3.95608646       2.28404758       3.73877158       14
O       -1.09562688       2.67041375      11.21631473       15
F       -1.64478045       4.25258866      13.96317290       16
F       -1.64478045       4.25258866       8.46945656       17
F        0.00000000       1.40374535      13.96317290       18
F        0.00000000       1.40374535       8.46945656       19
F        4.50524003       0.70187267       6.48562975       20
F        4.50524003       0.70187267       0.99191341       21
F        2.86045958       3.55071598       6.48562975       22
F        2.86045958       3.55071598       0.99191341       23
F        1.64478045       4.25258866      13.96317290       24
F        1.64478045       4.25258866       8.46945656       25
F        1.21567913       0.70187267       6.48562975       26
F        1.21567913       0.70187267       0.99191341       27
K        0.00000000       3.30297422      21.12036472        0
K        0.00000000       3.30297422      16.26735105        1
K        2.86045958       1.65148711      28.59790788        2
K        2.86045958       1.65148711      23.74489421        3
K        0.00000000       0.00000000      18.69385789        4
K        0.00000000       0.00000000      26.17140104        5
Si       0.00000000       0.00000000      22.43262946        6
Si       0.00000000       0.00000000      14.95508631        7
N        0.00000000       3.30297422      26.17140104        8
N        2.86045958       1.65148711      18.69385789        9
O        1.76483271       2.28404758      18.69385789       10
O        2.86045958       0.38636616      18.69385789       11
O        1.09562688       2.67041375      26.17140104       12
O        0.00000000       4.56809517      26.17140104       13
O        3.95608646       2.28404758      18.69385789       14
O       -1.09562688       2.67041375      26.17140104       15
F       -1.64478045       4.25258866      28.91825921       16
F       -1.64478045       4.25258866      23.42454287       17
F        0.00000000       1.40374535      28.91825921       18
F        0.00000000       1.40374535      23.42454287       19
F        4.50524003       0.70187267      21.44071606       20
F        4.50524003       0.70187267      15.94699972       21
F        2.86045958       3.55071598      21.44071606       22
F        2.86045958       3.55071598      15.94699972       23
F        1.64478045       4.25258866      28.91825921       24
F        1.64478045       4.25258866      23.42454287       25
F        1.21567913       0.70187267      21.44071606       26
F        1.21567913       0.70187267      15.94699972       27
K       -2.86045958       8.25743555       6.16527841        0
K       -2.86045958       8.25743555       1.31226474        1
K       -0.00000000       6.60594844      13.64282157        2
K       -0.00000000       6.60594844       8.78980790        3
K       -2.86045958       4.95446133       3.73877158        4
K       -2.86045958       4.95446133      11.21631473        5
Si      -2.86045958       4.95446133       7.47754315        6
Si      -2.86045958       4.95446133       0.00000000        7
N       -2.86045958       8.25743555      11.21631473        8
N       -0.00000000       6.60594844       3.73877158        9
O       -1.09562687       7.23850891       3.73877158       10
O       -0.00000000       5.34082749       3.73877158       11
O       -1.76483270       7.62487508      11.21631473       12
O       -2.86045958       9.52255650      11.21631473       13
O        1.09562688       7.23850891       3.73877158       14
O       -3.95608646       7.62487508      11.21631473       15
F       -4.50524003       9.20704999      13.96317290       16
F       -4.50524003       9.20704999       8.46945656       17
F       -2.86045958       6.35820668      13.96317290       18
F       -2.86045958       6.35820668       8.46945656       19
F        1.64478045       5.65633400       6.48562975       20
F        1.64478045       5.65633400       0.99191341       21
F       -0.00000000       8.50517731       6.48562975       22
F       -0.00000000       8.50517731       0.99191341       23
F       -1.21567913       9.20704999      13.96317290       24
F       -1.21567913       9.20704999       8.46945656       25
F       -1.64478045       5.65633400       6.48562975       26
F       -1.64478045       5.65633400       0.99191341       27
K       -2.86045958       8.25743555      21.12036472        0
K       -2.86045958       8.25743555      16.26735105        1
K       -0.00000000       6.60594844      28.59790788        2
K       -0.00000000       6.60594844      23.74489421        3
K       -2.86045958       4.95446133      18.69385789        4
K       -2.86045958       4.95446133      26.17140104        5
Si      -2.86045958       4.95446133      22.43262946        6
Si      -2.86045958       4.95446133      14.95508631        7
N       -2.86045958       8.25743555      26.17140104        8
N       -0.00000000       6.60594844      18.69385789        9
O       -1.09562687       7.23850891      18.69385789       10
O       -0.00000000       5.34082749      18.69385789       11
O       -1.76483270       7.62487508      26.17140104       12
O       -2.86045958       9.52255650      26.17140104       13
O        1.09562688       7.23850891      18.69385789       14
O       -3.95608646       7.62487508      26.17140104       15
F       -4.50524003       9.20704999      28.91825921       16
F       -4.50524003       9.20704999      23.42454287       17
F       -2.86045958       6.35820668      28.91825921       18
F       -2.86045958       6.35820668      23.42454287       19
F        1.64478045       5.65633400      21.44071606       20
F        1.64478045       5.65633400      15.94699972       21
F       -0.00000000       8.50517731      21.44071606       22
F       -0.00000000       8.50517731      15.94699972       23
F       -1.21567913       9.20704999      28.91825921       24
F       -1.21567913       9.20704999      23.42454287       25
F       -1.64478045       5.65633400      21.44071606       26
F       -1.64478045       5.65633400      15.94699972       27
K        5.72091917       3.30297422       6.16527841        0
K        5.72091917       3.30297422       1.31226474        1
K        8.58137875       1.65148711      13.64282157        2
K        8.58137875       1.65148711       8.78980790        3
K        5.72091917       0.00000000       3.73877158        4
K        5.72091917       0.00000000      11.21631473        5
Si       5.72091917       0.00000000       7.47754315        6
Si       5.72091917       0.00000000       0.00000000        7
N        5.72091917       3.30297422      11.21631473        8
N        8.58137875       1.65148711       3.73877158        9
O        7.48575188       2.28404758       3.73877158       10
O        8.58137875       0.38636616       3.73877158       11
O        6.81654605       2.67041375      11.21631473       12
O        5.72091917       4.56809517      11.21631473       13
O        9.67700563       2.28404758       3.73877158       14
O        4.62529229       2.67041375      11.21631473       15
F        4.07613872       4.25258866      13.96317290       16
F        4.07613872       4.25258866       8.46945656       17
F        5.72091917       1.40374535      13.96317290       18
F        5.72091917       1.40374535       8.46945656       19
F       10.22615920       0.70187267       6.48562975       20
F       10.22615920       0.70187267       0.99191341       21
F        8.58137875       3.55071598       6.48562975       22
F        8.58137875       3.55071598       0.99191341       23
F        7.36569962       4.25258866      13.96317290       24
F        7.36569962       4.25258866       8.46945656       25
F        6.93659830       0.70187267       6.48562975       26
F        6.93659830       0.70187267       0.99191341       27
K        5.72091917       3.30297422      21.12036472        0
K        5.72091917       3.30297422      16.26735105        1
K        8.58137875       1.65148711      28.59790788        2
K        8.58137875       1.65148711      23.74489421        3
K        5.72091917       0.00000000      18.69385789        4
K        5.72091917       0.00000000      26.17140104        5
Si       5.72091917       0.00000000      22.43262946        6
Si       5.72091917       0.00000000      14.95508631        7
N        5.72091917       3.30297422      26.17140104        8
N        8.58137875       1.65148711      18.69385789        9
O        7.48575188       2.28404758      18.69385789       10
O        8.58137875       0.38636616      18.69385789       11
O        6.81654605       2.67041375      26.17140104       12
O        5.72091917       4.56809517      26.17140104       13
O        9.67700563       2.28404758      18.69385789       14
O        4.62529229       2.67041375      26.17140104       15
F        4.07613872       4.25258866      28.91825921       16
F        4.07613872       4.25258866      23.42454287       17
F        5.72091917       1.40374535      28.91825921       18
F        5.72091917       1.40374535      23.42454287       19
F       10.22615920       0.70187267      21.44071606       20
F       10.22615920       0.70187267      15.94699972       21
F        8.58137875       3.55071598      21.44071606       22
F        8.58137875       3.55071598      15.94699972       23
F        7.36569962       4.25258866      28.91825921       24
F        7.36569962       4.25258866      23.42454287       25
F        6.93659830       0.70187267      21.44071606       26
F        6.93659830       0.70187267      15.94699972       27
K        2.86045958       8.25743555       6.16527841        0
K        2.86045958       8.25743555       1.31226474        1
K        5.72091916       6.60594844      13.64282157        2
K        5.72091916       6.60594844       8.78980790        3
K        2.86045958       4.95446133       3.73877158        4
K        2.86045958       4.95446133      11.21631473        5
Si       2.86045958       4.95446133       7.47754315        6
Si       2.86045958       4.95446133       0.00000000        7
N        2.86045958       8.25743555      11.21631473        8
N        5.72091916       6.60594844       3.73877158        9
O        4.62529229       7.23850891       3.73877158       10
O        5.72091916       5.34082749       3.73877158       11
O        3.95608646       7.62487508      11.21631473       12
O        2.86045958       9.52255650      11.21631473       13
O        6.81654604       7.23850891       3.73877158       14
O        1.76483270       7.62487508      11.21631473       15
F        1.21567913       9.20704999      13.96317290       16
F        1.21567913       9.20704999       8.46945656       17
F        2.86045958       6.35820668      13.96317290       18
F        2.86045958       6.35820668       8.46945656       19
F        7.36569961       5.65633400       6.48562975       20
F        7.36569961       5.65633400       0.99191341       21
F        5.72091916       8.50517731       6.48562975       22
F        5.72091916       8.50517731       0.99191341       23
F        4.50524003       9.20704999      13.96317290       24
F        4.50524003       9.20704999       8.46945656       25
F        4.07613871       5.65633400       6.48562975       26
F        4.07613871       5.65633400       0.99191341       27
K        2.86045958       8.25743555      21.12036472        0
K        2.86045958       8.25743555      16.26735105        1
K        5.72091916       6.60594844      28.59790788        2
K        5.72091916       6.60594844      23.74489421        3
K        2.86045958       4.95446133      18.69385789        4
K        2.86045958       4.95446133      26.17140104        5
Si       2.86045958       4.95446133      22.43262946        6
Si       2.86045958       4.95446133      14.95508631        7
N        2.86045958       8.25743555      26.17140104        8
N        5.72091916       6.60594844      18.69385789        9
O        4.62529229       7.23850891      18.69385789       10
O        5.72091916       5.34082749      18.69385789       11
O        3.95608646       7.62487508      26.17140104       12
O        2.86045958       9.52255650      26.17140104       13
O        6.81654604       7.23850891      18.69385789       14
O        1.76483270       7.62487508      26.17140104       15
F        1.21567913       9.20704999      28.91825921       16
F        1.21567913       9.20704999      23.42454287       17
F        2.86045958       6.35820668      28.91825921       18
F        2.86045958       6.35820668      23.42454287       19
F        7.36569961       5.65633400      21.44071606       20
F        7.36569961       5.65633400      15.94699972       21
F        5.72091916       8.50517731      21.44071606       22
F        5.72091916       8.50517731      15.94699972       23
F        4.50524003       9.20704999      28.91825921       24
F        4.50524003       9.20704999      23.42454287       25
F        4.07613871       5.65633400      21.44071606       26
F        4.07613871       5.65633400      15.94699972       27
