112
Lattice="13.275038994603525 0.0 0.0 6.637519497301764 11.496521005555685 0.0 6.637519497301764 3.832173668518563 10.839023950776015" Properties=species:S:1:pos:R:3:spacegroup_kinds:I:1 pbc="T T T"
Fe       6.63751950       3.83217367       2.70975599        0
Fe       9.95627925       5.74826050       4.06463398        1
Ni       4.97813962       0.95804342       0.67743900        2
Ni       3.31875975       3.83217367       0.67743900        3
Ni       3.31875975       1.91608683       3.38719498        4
Ni       1.65937987       0.95804342       0.67743900        5
S        8.36133601       2.83692774       2.00601084        6
S        6.63751950       5.82266553       2.00601084        7
S        6.63751950       3.83217367       4.82099143        8
S        4.91370298       2.83692774       2.00601084        9
S        8.23246273       6.74350643       4.76837913       10
S        9.95627925       3.75776864       4.76837913       11
S        9.95627925       5.74826050       1.95339854       12
S       11.68009576       6.74350643       4.76837913       13
Fe       9.95627925       5.74826050       8.12926797        0
Fe      13.27503900       7.66434733       9.48414596        1
Ni       8.29689937       2.87413025       6.09695098        2
Ni       6.63751950       5.74826050       6.09695098        3
Ni       6.63751950       3.83217366       8.80670696        4
Ni       4.97813962       2.87413025       6.09695098        5
S       11.68009576       4.75301457       7.42552282        6
S        9.95627925       7.73875236       7.42552282        7
S        9.95627925       5.74826050      10.24050341        8
S        8.23246273       4.75301457       7.42552282        9
S       11.55122248       8.65959326      10.18789111       10
S       13.27503900       5.67385547      10.18789111       11
S       13.27503900       7.66434733       7.37291052       12
S       14.99885551       8.65959326      10.18789111       13
Fe       9.95627925       9.58043417       2.70975599        0
Fe      13.27503900      11.49652100       4.06463398        1
Ni       8.29689937       6.70630392       0.67743900        2
Ni       6.63751950       9.58043417       0.67743900        3
Ni       6.63751950       7.66434733       3.38719498        4
Ni       4.97813962       6.70630392       0.67743900        5
S       11.68009576       8.58518824       2.00601084        6
S        9.95627925      11.57092603       2.00601084        7
S        9.95627925       9.58043417       4.82099143        8
S        8.23246273       8.58518824       2.00601084        9
S       11.55122248      12.49176693       4.76837913       10
S       13.27503900       9.50602914       4.76837913       11
S       13.27503900      11.49652100       1.95339854       12
S       14.99885551      12.49176693       4.76837913       13
Fe      13.27503900      11.49652101       8.12926797        0
Fe      16.59379875      13.41260784       9.48414596        1
Ni      11.61565912       8.62239076       6.09695098        2
Ni       9.95627925      11.49652101       6.09695098        3
Ni       9.95627925       9.58043417       8.80670696        4
Ni       8.29689937       8.62239076       6.09695098        5
S       14.99885551      10.50127508       7.42552282        6
S       13.27503900      13.48701287       7.42552282        7
S       13.27503900      11.49652101      10.24050341        8
S       11.55122248      10.50127508       7.42552282        9
S       14.86998223      14.40785377      10.18789111       10
S       16.59379875      11.42211598      10.18789111       11
S       16.59379875      13.41260784       7.37291052       12
S       18.31761526      14.40785377      10.18789111       13
Fe      13.27503900       3.83217367       2.70975599        0
Fe      16.59379875       5.74826050       4.06463398        1
Ni      11.61565912       0.95804342       0.67743900        2
Ni       9.95627925       3.83217367       0.67743900        3
Ni       9.95627925       1.91608683       3.38719498        4
Ni       8.29689937       0.95804342       0.67743900        5
S       14.99885551       2.83692774       2.00601084        6
S       13.27503900       5.82266553       2.00601084        7
S       13.27503900       3.83217367       4.82099143        8
S       11.55122248       2.83692774       2.00601084        9
S       14.86998223       6.74350643       4.76837913       10
S       16.59379875       3.75776864       4.76837913       11
S       16.59379875       5.74826050       1.95339854       12
S       18.31761526       6.74350643       4.76837913       13
Fe      16.59379875       5.74826050       8.12926797        0
Fe      19.91255850       7.66434733       9.48414596        1
Ni      14.93441887       2.87413025       6.09695098        2
Ni      13.27503900       5.74826050       6.09695098        3
Ni      13.27503900       3.83217366       8.80670696        4
Ni      11.61565912       2.87413025       6.09695098        5
S       18.31761526       4.75301457       7.42552282        6
S       16.59379875       7.73875236       7.42552282        7
S       16.59379875       5.74826050      10.24050341        8
S       14.86998223       4.75301457       7.42552282        9
S       18.18874198       8.65959326      10.18789111       10
S       19.91255850       5.67385547      10.18789111       11
S       19.91255850       7.66434733       7.37291052       12
S       21.63637501       8.65959326      10.18789111       13
Fe      16.59379875       9.58043417       2.70975599        0
Fe      19.91255850      11.49652100       4.06463398        1
Ni      14.93441887       6.70630392       0.67743900        2
Ni      13.27503900       9.58043417       0.67743900        3
Ni      13.27503900       7.66434733       3.38719498        4
Ni      11.61565912       6.70630392       0.67743900        5
S       18.31761526       8.58518824       2.00601084        6
S       16.59379875      11.57092603       2.00601084        7
S       16.59379875       9.58043417       4.82099143        8
S       14.86998223       8.58518824       2.00601084        9
S       18.18874198      12.49176693       4.76837913       10
S       19.91255850       9.50602914       4.76837913       11
S       19.91255850      11.49652100       1.95339854       12
S       21.63637501      12.49176693       4.76837913       13
Fe      19.91255849      11.49652101       8.12926797        0
Fe      23.23131824      13.41260784       9.48414596        1
Ni      18.25317861       8.62239076       6.09695098        2
Ni      16.59379874      11.49652101       6.09695098        3
Ni      16.59379874       9.58043417       8.80670696        4
Ni      14.93441886       8.62239076       6.09695098        5
S       21.63637500      10.50127508       7.42552282        6
S       19.91255849      13.48701287       7.42552282        7
S       19.91255849      11.49652101      10.24050341        8
S       18.18874197      10.50127508       7.42552282        9
S       21.50750172      14.40785377      10.18789111       10
S       23.23131824      11.42211598      10.18789111       11
S       23.23131824      13.41260784       7.37291052       12
S       24.95513475      14.40785377      10.18789111       13
