96
Lattice="11.9908520454 0.0 0.0 0.0 7.2362247012 0.0 0.0 0.0 13.5904829858" Properties=species:S:1:pos:R:3:spacegroup_kinds:I:1 pbc="T T T"
Ti       5.87041037       2.71358426       4.63367030        0
Ti       2.87269735       2.71358426       5.55919194        1
Ti       0.12501566       0.90452809       2.16157119        2
Ti       3.12272867       0.90452809       1.23604955        3
Fe       5.10236020       2.71358426       0.41429872        4
Fe       2.10464719       2.71358426       2.98332202        5
Fe       0.89306582       0.90452809       6.38094277        6
Fe       3.89077883       0.90452809       3.81191947        7
P        4.34358403       2.71358426       2.57573446        8
P        1.34587102       2.71358426       0.82188629        9
P        1.65184199       0.90452809       4.21950703       10
P        4.64955500       0.90452809       5.97335521       11
Ti       5.87041037       2.71358426      11.42891179        0
Ti       2.87269735       2.71358426      12.35443343        1
Ti       0.12501566       0.90452809       8.95681268        2
Ti       3.12272867       0.90452809       8.03129104        3
Fe       5.10236020       2.71358426       7.20954021        4
Fe       2.10464719       2.71358426       9.77856351        5
Fe       0.89306582       0.90452809      13.17618426        6
Fe       3.89077883       0.90452809      10.60716096        7
P        4.34358403       2.71358426       9.37097595        8
P        1.34587102       2.71358426       7.61712778        9
P        1.65184199       0.90452809      11.01474852       10
P        4.64955500       0.90452809      12.76859670       11
Ti       5.87041037       6.33169661       4.63367030        0
Ti       2.87269735       6.33169661       5.55919194        1
Ti       0.12501566       4.52264044       2.16157119        2
Ti       3.12272867       4.52264044       1.23604955        3
Fe       5.10236020       6.33169661       0.41429872        4
Fe       2.10464719       6.33169661       2.98332202        5
Fe       0.89306582       4.52264044       6.38094277        6
Fe       3.89077883       4.52264044       3.81191947        7
P        4.34358403       6.33169661       2.57573446        8
P        1.34587102       6.33169661       0.82188629        9
P        1.65184199       4.52264044       4.21950703       10
P        4.64955500       4.52264044       5.97335521       11
Ti       5.87041037       6.33169661      11.42891179        0
Ti       2.87269735       6.33169661      12.35443343        1
Ti       0.12501566       4.52264044       8.95681268        2
Ti       3.12272867       4.52264044       8.03129104        3
Fe       5.10236020       6.33169661       7.20954021        4
Fe       2.10464719       6.33169661       9.77856351        5
Fe       0.89306582       4.52264044      13.17618426        6
Fe       3.89077883       4.52264044      10.60716096        7
P        4.34358403       6.33169661       9.37097595        8
P        1.34587102       6.33169661       7.61712778        9
P        1.65184199       4.52264044      11.01474852       10
P        4.64955500       4.52264044      12.76859670       11
Ti      11.86583639       2.71358426       4.63367030        0
Ti       8.86812337       2.71358426       5.55919194        1
Ti       6.12044168       0.90452809       2.16157119        2
Ti       9.11815469       0.90452809       1.23604955        3
Fe      11.09778622       2.71358426       0.41429872        4
Fe       8.10007321       2.71358426       2.98332202        5
Fe       6.88849184       0.90452809       6.38094277        6
Fe       9.88620485       0.90452809       3.81191947        7
P       10.33901005       2.71358426       2.57573446        8
P        7.34129704       2.71358426       0.82188629        9
P        7.64726801       0.90452809       4.21950703       10
P       10.64498102       0.90452809       5.97335521       11
Ti      11.86583639       2.71358426      11.42891179        0
Ti       8.86812337       2.71358426      12.35443343        1
Ti       6.12044168       0.90452809       8.95681268        2
Ti       9.11815469       0.90452809       8.03129104        3
Fe      11.09778622       2.71358426       7.20954021        4
Fe       8.10007321       2.71358426       9.77856351        5
Fe       6.88849184       0.90452809      13.17618426        6
Fe       9.88620485       0.90452809      10.60716096        7
P       10.33901005       2.71358426       9.37097595        8
P        7.34129704       2.71358426       7.61712778        9
P        7.64726801       0.90452809      11.01474852       10
P       10.64498102       0.90452809      12.76859670       11
Ti      11.86583639       6.33169661       4.63367030        0
Ti       8.86812337       6.33169661       5.55919194        1
Ti       6.12044168       4.52264044       2.16157119        2
Ti       9.11815469       4.52264044       1.23604955        3
Fe      11.09778622       6.33169661       0.41429872        4
Fe       8.10007321       6.33169661       2.98332202        5
Fe       6.88849184       4.52264044       6.38094277        6
Fe       9.88620485       4.52264044       3.81191947        7
P       10.33901005       6.33169661       2.57573446        8
P        7.34129704       6.33169661       0.82188629        9
P        7.64726801       4.52264044       4.21950703       10
P       10.64498102       4.52264044       5.97335521       11
Ti      11.86583639       6.33169661      11.42891179        0
Ti       8.86812337       6.33169661      12.35443343        1
Ti       6.12044168       4.52264044       8.95681268        2
Ti       9.11815469       4.52264044       8.03129104        3
Fe      11.09778622       6.33169661       7.20954021        4
Fe       8.10007321       6.33169661       9.77856351        5
Fe       6.88849184       4.52264044      13.17618426        6
Fe       9.88620485       4.52264044      10.60716096        7
P       10.33901005       6.33169661       9.37097595        8
P        7.34129704       6.33169661       7.61712778        9
P        7.64726801       4.52264044      11.01474852       10
P       10.64498102       4.52264044      12.76859670       11
