320
Lattice="21.228698719053106 0.0 0.0 0.0 22.303656261912 0.0 -3.0118678350327306 0.0 10.535717571462179" Properties=species:S:1:pos:R:3:spacegroup_kinds:I:1 pbc="T T T"
K        1.90148476       1.74217988       2.63425984        0
K        2.65445172       3.83373419       0.00033045        1
K        6.45396372       7.31809394       5.26752834        2
K        7.20693068       9.40964825       2.63359894        3
Sc       6.45411195       0.02220417       5.26738001        4
Sc       7.20707891       5.55370989       2.63345061        5
Sc       1.90133653       5.59811824       2.63440817        6
Sc       2.65430349      11.12962396       0.00047878        7
Ge       9.81392985       3.70876568       1.15743318        8
Ge       9.06096290       1.86714838       3.79136257        9
Ge       0.04745255       9.28467975       1.47649622       10
Ge      -0.70551441       7.44306245       4.11042561       11
Ge       5.35603804       1.86673968       1.48017920       12
Ge       4.60307108       3.70917438       4.11410859       13
Ge       4.50534436       7.44265375       1.15375020       14
Ge       3.75237740       9.28508845       3.78767959       15
O        9.32117152       2.19179961       2.02252054       16
O        8.56820457       3.38411445       4.65644993       17
O        0.54021088       7.76771368       0.61140886       18
O       -0.21275608       8.96002852       3.24533825       19
O        9.07434770       9.75742166       0.87822814       20
O        8.32138074       6.97032054       3.51215753       21
O        0.78703470       4.18150759       1.75570125       22
O        0.03406775       1.39440648       4.38963064       23
O        8.57414020       4.89707256       1.37572247       24
O        7.82117324       0.67884150       4.00965187       25
O        1.28724220      10.47298663       1.25820692       26
O        0.53427524       6.25475557       3.89213631       27
O        5.84777823       3.38424135       0.61500551       28
O        5.09481127       2.19167271       3.24893491       29
O        4.01360417       8.96015542       2.01892388       30
O        3.26063721       7.76758678       4.65285327       31
O        3.26522879       6.25498924       1.37306437       32
O        2.51226183      10.47275296       4.00699376       33
O        6.59615361       0.67907517       1.26086502       34
O        5.84318665       4.89683890       3.89479441       35
O        3.76982438       1.39220622       0.88061892       36
O        3.01685742       4.18370784       3.51454831       37
O        6.09155802       6.96812029       1.75331047       38
O        5.33859106       9.75962191       4.38723987       39
K        0.39555084       1.74217988       7.90211863        0
K        1.14851780       3.83373419       5.26818924        1
K        4.94802980       7.31809394      10.53538713        2
K        5.70099676       9.40964825       7.90145773        3
Sc       4.94817803       0.02220417      10.53523880        4
Sc       5.70114499       5.55370989       7.90130940        5
Sc       0.39540261       5.59811824       7.90226696        6
Sc       1.14836957      11.12962396       5.26833757        7
Ge       8.30799593       3.70876568       6.42529197        8
Ge       7.55502898       1.86714838       9.05922136        9
Ge      -1.45848137       9.28467975       6.74435501       10
Ge      -2.21144833       7.44306245       9.37828440       11
Ge       3.85010412       1.86673968       6.74803799       12
Ge       3.09713716       3.70917438       9.38196738       13
Ge       2.99941044       7.44265375       6.42160899       14
Ge       2.24644348       9.28508845       9.05553838       15
O        7.81523760       2.19179961       7.29037933       16
O        7.06227065       3.38411445       9.92430872       17
O       -0.96572304       7.76771368       5.87926765       18
O       -1.71869000       8.96002852       8.51319704       19
O        7.56841378       9.75742166       6.14608693       20
O        6.81544682       6.97032054       8.78001632       21
O       -0.71889922       4.18150759       7.02356004       22
O       -1.47186617       1.39440648       9.65748943       23
O        7.06820628       4.89707256       6.64358126       24
O        6.31523932       0.67884150       9.27751066       25
O       -0.21869172      10.47298663       6.52606571       26
O       -0.97165868       6.25475557       9.15999510       27
O        4.34184431       3.38424135       5.88286430       28
O        3.58887735       2.19167271       8.51679370       29
O        2.50767025       8.96015542       7.28678267       30
O        1.75470329       7.76758678       9.92071206       31
O        1.75929487       6.25498924       6.64092316       32
O        1.00632791      10.47275296       9.27485255       33
O        5.09021969       0.67907517       6.52872381       34
O        4.33725273       4.89683890       9.16265320       35
O        2.26389046       1.39220622       6.14847771       36
O        1.51092350       4.18370784       8.78240710       37
O        4.58562410       6.96812029       7.02116926       38
O        3.83265714       9.75962191       9.65509866       39
K        1.90148476      12.89400801       2.63425984        0
K        2.65445172      14.98556232       0.00033045        1
K        6.45396372      18.46992207       5.26752834        2
K        7.20693068      20.56147638       2.63359894        3
Sc       6.45411195      11.17403230       5.26738001        4
Sc       7.20707891      16.70553802       2.63345061        5
Sc       1.90133653      16.74994637       2.63440817        6
Sc       2.65430349      22.28145209       0.00047878        7
Ge       9.81392985      14.86059381       1.15743318        8
Ge       9.06096290      13.01897651       3.79136257        9
Ge       0.04745255      20.43650788       1.47649622       10
Ge      -0.70551441      18.59489058       4.11042561       11
Ge       5.35603804      13.01856781       1.48017920       12
Ge       4.60307108      14.86100251       4.11410859       13
Ge       4.50534436      18.59448188       1.15375020       14
Ge       3.75237740      20.43691658       3.78767959       15
O        9.32117152      13.34362774       2.02252054       16
O        8.56820457      14.53594258       4.65644993       17
O        0.54021088      18.91954181       0.61140886       18
O       -0.21275608      20.11185665       3.24533825       19
O        9.07434770      20.90924979       0.87822814       20
O        8.32138074      18.12214867       3.51215753       21
O        0.78703470      15.33333572       1.75570125       22
O        0.03406775      12.54623461       4.38963064       23
O        8.57414020      16.04890069       1.37572247       24
O        7.82117324      11.83066963       4.00965187       25
O        1.28724220      21.62481476       1.25820692       26
O        0.53427524      17.40658370       3.89213631       27
O        5.84777823      14.53606948       0.61500551       28
O        5.09481127      13.34350084       3.24893491       29
O        4.01360417      20.11198355       2.01892388       30
O        3.26063721      18.91941491       4.65285327       31
O        3.26522879      17.40681737       1.37306437       32
O        2.51226183      21.62458109       4.00699376       33
O        6.59615361      11.83090330       1.26086502       34
O        5.84318665      16.04866703       3.89479441       35
O        3.76982438      12.54403435       0.88061892       36
O        3.01685742      15.33553597       3.51454831       37
O        6.09155802      18.11994842       1.75331047       38
O        5.33859106      20.91145004       4.38723987       39
K        0.39555084      12.89400801       7.90211863        0
K        1.14851780      14.98556232       5.26818924        1
K        4.94802980      18.46992207      10.53538713        2
K        5.70099676      20.56147638       7.90145773        3
Sc       4.94817803      11.17403230      10.53523880        4
Sc       5.70114499      16.70553802       7.90130940        5
Sc       0.39540261      16.74994637       7.90226696        6
Sc       1.14836957      22.28145209       5.26833757        7
Ge       8.30799593      14.86059381       6.42529197        8
Ge       7.55502898      13.01897651       9.05922136        9
Ge      -1.45848137      20.43650788       6.74435501       10
Ge      -2.21144833      18.59489058       9.37828440       11
Ge       3.85010412      13.01856781       6.74803799       12
Ge       3.09713716      14.86100251       9.38196738       13
Ge       2.99941044      18.59448188       6.42160899       14
Ge       2.24644348      20.43691658       9.05553838       15
O        7.81523760      13.34362774       7.29037933       16
O        7.06227065      14.53594258       9.92430872       17
O       -0.96572304      18.91954181       5.87926765       18
O       -1.71869000      20.11185665       8.51319704       19
O        7.56841378      20.90924979       6.14608693       20
O        6.81544682      18.12214867       8.78001632       21
O       -0.71889922      15.33333572       7.02356004       22
O       -1.47186617      12.54623461       9.65748943       23
O        7.06820628      16.04890069       6.64358126       24
O        6.31523932      11.83066963       9.27751066       25
O       -0.21869172      21.62481476       6.52606571       26
O       -0.97165868      17.40658370       9.15999510       27
O        4.34184431      14.53606948       5.88286430       28
O        3.58887735      13.34350084       8.51679370       29
O        2.50767025      20.11198355       7.28678267       30
O        1.75470329      18.91941491       9.92071206       31
O        1.75929487      17.40681737       6.64092316       32
O        1.00632791      21.62458109       9.27485255       33
O        5.09021969      11.83090330       6.52872381       34
O        4.33725273      16.04866703       9.16265320       35
O        2.26389046      12.54403435       6.14847771       36
O        1.51092350      15.33553597       8.78240710       37
O        4.58562410      18.11994842       7.02116926       38
O        3.83265714      20.91145004       9.65509866       39
K       12.51583412       1.74217988       2.63425984        0
K       13.26880108       3.83373419       0.00033045        1
K       17.06831308       7.31809394       5.26752834        2
K       17.82128004       9.40964825       2.63359894        3
Sc      17.06846131       0.02220417       5.26738001        4
Sc      17.82142827       5.55370989       2.63345061        5
Sc      12.51568589       5.59811824       2.63440817        6
Sc      13.26865285      11.12962396       0.00047878        7
Ge      20.42827921       3.70876568       1.15743318        8
Ge      19.67531226       1.86714838       3.79136257        9
Ge      10.66180191       9.28467975       1.47649622       10
Ge       9.90883495       7.44306245       4.11042561       11
Ge      15.97038740       1.86673968       1.48017920       12
Ge      15.21742044       3.70917438       4.11410859       13
Ge      15.11969372       7.44265375       1.15375020       14
Ge      14.36672676       9.28508845       3.78767959       15
O       19.93552088       2.19179961       2.02252054       16
O       19.18255393       3.38411445       4.65644993       17
O       11.15456024       7.76771368       0.61140886       18
O       10.40159328       8.96002852       3.24533825       19
O       19.68869706       9.75742166       0.87822814       20
O       18.93573010       6.97032054       3.51215753       21
O       11.40138406       4.18150759       1.75570125       22
O       10.64841711       1.39440648       4.38963064       23
O       19.18848956       4.89707256       1.37572247       24
O       18.43552260       0.67884150       4.00965187       25
O       11.90159156      10.47298663       1.25820692       26
O       11.14862460       6.25475557       3.89213631       27
O       16.46212759       3.38424135       0.61500551       28
O       15.70916063       2.19167271       3.24893491       29
O       14.62795353       8.96015542       2.01892388       30
O       13.87498657       7.76758678       4.65285327       31
O       13.87957815       6.25498924       1.37306437       32
O       13.12661119      10.47275296       4.00699376       33
O       17.21050297       0.67907517       1.26086502       34
O       16.45753601       4.89683890       3.89479441       35
O       14.38417374       1.39220622       0.88061892       36
O       13.63120678       4.18370784       3.51454831       37
O       16.70590738       6.96812029       1.75331047       38
O       15.95294042       9.75962191       4.38723987       39
K       11.00990020       1.74217988       7.90211863        0
K       11.76286716       3.83373419       5.26818924        1
K       15.56237916       7.31809394      10.53538713        2
K       16.31534612       9.40964825       7.90145773        3
Sc      15.56252739       0.02220417      10.53523880        4
Sc      16.31549435       5.55370989       7.90130940        5
Sc      11.00975197       5.59811824       7.90226696        6
Sc      11.76271893      11.12962396       5.26833757        7
Ge      18.92234529       3.70876568       6.42529197        8
Ge      18.16937834       1.86714838       9.05922136        9
Ge       9.15586799       9.28467975       6.74435501       10
Ge       8.40290103       7.44306245       9.37828440       11
Ge      14.46445348       1.86673968       6.74803799       12
Ge      13.71148652       3.70917438       9.38196738       13
Ge      13.61375980       7.44265375       6.42160899       14
Ge      12.86079284       9.28508845       9.05553838       15
O       18.42958696       2.19179961       7.29037933       16
O       17.67662001       3.38411445       9.92430872       17
O        9.64862632       7.76771368       5.87926765       18
O        8.89565936       8.96002852       8.51319704       19
O       18.18276314       9.75742166       6.14608693       20
O       17.42979618       6.97032054       8.78001632       21
O        9.89545014       4.18150759       7.02356004       22
O        9.14248319       1.39440648       9.65748943       23
O       17.68255564       4.89707256       6.64358126       24
O       16.92958868       0.67884150       9.27751066       25
O       10.39565764      10.47298663       6.52606571       26
O        9.64269068       6.25475557       9.15999510       27
O       14.95619367       3.38424135       5.88286430       28
O       14.20322671       2.19167271       8.51679370       29
O       13.12201961       8.96015542       7.28678267       30
O       12.36905265       7.76758678       9.92071206       31
O       12.37364423       6.25498924       6.64092316       32
O       11.62067727      10.47275296       9.27485255       33
O       15.70456905       0.67907517       6.52872381       34
O       14.95160209       4.89683890       9.16265320       35
O       12.87823982       1.39220622       6.14847771       36
O       12.12527286       4.18370784       8.78240710       37
O       15.19997346       6.96812029       7.02116926       38
O       14.44700650       9.75962191       9.65509866       39
K       12.51583412      12.89400801       2.63425984        0
K       13.26880108      14.98556232       0.00033045        1
K       17.06831308      18.46992207       5.26752834        2
K       17.82128004      20.56147638       2.63359894        3
Sc      17.06846131      11.17403230       5.26738001        4
Sc      17.82142827      16.70553802       2.63345061        5
Sc      12.51568589      16.74994637       2.63440817        6
Sc      13.26865285      22.28145209       0.00047878        7
Ge      20.42827921      14.86059381       1.15743318        8
Ge      19.67531226      13.01897651       3.79136257        9
Ge      10.66180191      20.43650788       1.47649622       10
Ge       9.90883495      18.59489058       4.11042561       11
Ge      15.97038740      13.01856781       1.48017920       12
Ge      15.21742044      14.86100251       4.11410859       13
Ge      15.11969372      18.59448188       1.15375020       14
Ge      14.36672676      20.43691658       3.78767959       15
O       19.93552088      13.34362774       2.02252054       16
O       19.18255393      14.53594258       4.65644993       17
O       11.15456024      18.91954181       0.61140886       18
O       10.40159328      20.11185665       3.24533825       19
O       19.68869706      20.90924979       0.87822814       20
O       18.93573010      18.12214867       3.51215753       21
O       11.40138406      15.33333572       1.75570125       22
O       10.64841711      12.54623461       4.38963064       23
O       19.18848956      16.04890069       1.37572247       24
O       18.43552260      11.83066963       4.00965187       25
O       11.90159156      21.62481476       1.25820692       26
O       11.14862460      17.40658370       3.89213631       27
O       16.46212759      14.53606948       0.61500551       28
O       15.70916063      13.34350084       3.24893491       29
O       14.62795353      20.11198355       2.01892388       30
O       13.87498657      18.91941491       4.65285327       31
O       13.87957815      17.40681737       1.37306437       32
O       13.12661119      21.62458109       4.00699376       33
O       17.21050297      11.83090330       1.26086502       34
O       16.45753601      16.04866703       3.89479441       35
O       14.38417374      12.54403435       0.88061892       36
O       13.63120678      15.33553597       3.51454831       37
O       16.70590738      18.11994842       1.75331047       38
O       15.95294042      20.91145004       4.38723987       39
K       11.00990020      12.89400801       7.90211863        0
K       11.76286716      14.98556232       5.26818924        1
K       15.56237916      18.46992207      10.53538713        2
K       16.31534612      20.56147638       7.90145773        3
Sc      15.56252739      11.17403230      10.53523880        4
Sc      16.31549435      16.70553802       7.90130940        5
Sc      11.00975197      16.74994637       7.90226696        6
Sc      11.76271893      22.28145209       5.26833757        7
Ge      18.92234529      14.86059381       6.42529197        8
Ge      18.16937834      13.01897651       9.05922136        9
Ge       9.15586799      20.43650788       6.74435501       10
Ge       8.40290103      18.59489058       9.37828440       11
Ge      14.46445348      13.01856781       6.74803799       12
Ge      13.71148652      14.86100251       9.38196738       13
Ge      13.61375980      18.59448188       6.42160899       14
Ge      12.86079284      20.43691658       9.05553838       15
O       18.42958696      13.34362774       7.29037933       16
O       17.67662001      14.53594258       9.92430872       17
O        9.64862632      18.91954181       5.87926765       18
O        8.89565936      20.11185665       8.51319704       19
O       18.18276314      20.90924979       6.14608693       20
O       17.42979618      18.12214867       8.78001632       21
O        9.89545014      15.33333572       7.02356004       22
O        9.14248319      12.54623461       9.65748943       23
O       17.68255564      16.04890069       6.64358126       24
O       16.92958868      11.83066963       9.27751066       25
O       10.39565764      21.62481476       6.52606571       26
O        9.64269068      17.40658370       9.15999510       27
O       14.95619367      14.53606948       5.88286430       28
O       14.20322671      13.34350084       8.51679370       29
O       13.12201961      20.11198355       7.28678267       30
O       12.36905265      18.91941491       9.92071206       31
O       12.37364423      17.40681737       6.64092316       32
O       11.62067727      21.62458109       9.27485255       33
O       15.70456905      11.83090330       6.52872381       34
O       14.95160209      16.04866703       9.16265320       35
O       12.87823982      12.54403435       6.14847771       36
O       12.12527286      15.33553597       8.78240710       37
O       15.19997346      18.11994842       7.02116926       38
O       14.44700650      20.91145004       9.65509866       39
