304
Lattice="24.350435021608 0.0 0.0 0.0 24.350435021608 0.0 0.0 0.0 9.8065267650294" Properties=species:S:1:pos:R:3:spacegroup_kinds:I:1 pbc="T T T"
Li       6.08760876       6.08760876       0.00000000        0
Li       0.00000000       0.00000000       0.00000000        1
Ti       1.80619899       4.28140976       0.43994897        2
Ti       1.80619899       7.89380775       0.43994897        3
Ti       7.89380775      10.36901852       4.46331441        4
Ti       7.89380775       1.80619899       4.46331441        5
Ti       4.28140976       1.80619899       4.46331441        6
Ti       4.28140976      10.36901852       4.46331441        7
Ti      10.36901852       7.89380775       0.43994897        8
Ti      10.36901852       4.28140976       0.43994897        9
Ge       9.13141313       3.04380438       2.45163169       10
Ge       9.13141313       9.13141313       2.45163169       11
Ge       3.04380438       9.13141313       2.45163169       12
Ge       3.04380438       3.04380438       2.45163169       13
O        2.75600492      10.67511722       3.63277801       14
O        2.75600492       1.50010029       3.63277801       15
O        8.84361367       4.58750847       1.27048537       16
O        8.84361367       7.58770904       1.27048537       17
O       10.67511722       2.75600492       1.27048537       18
O       10.67511722       9.41921259       1.27048537       19
O        4.58750847       8.84361367       3.63277801       20
O        4.58750847       3.33160384       3.63277801       21
O        9.41921259      10.67511722       3.63277801       22
O        9.41921259       1.50010029       3.63277801       23
O        3.33160384       4.58750847       1.27048537       24
O        3.33160384       7.58770904       1.27048537       25
O        1.50010029       2.75600492       1.27048537       26
O        1.50010029       9.41921259       1.27048537       27
O        7.58770904       8.84361367       3.63277801       28
O        7.58770904       3.33160384       3.63277801       29
O        1.97508138       4.11252737       3.57462980       30
O        1.97508138       8.06269014       3.57462980       31
O        8.06269014      10.20013613       1.32863358       32
O        8.06269014       1.97508138       1.32863358       33
O        4.11252737       1.97508138       1.32863358       34
O        4.11252737      10.20013613       1.32863358       35
O       10.20013613       8.06269014       3.57462980       36
O       10.20013613       4.11252737       3.57462980       37
Li       6.08760876       6.08760876       4.90326338        0
Li       0.00000000       0.00000000       4.90326338        1
Ti       1.80619899       4.28140976       5.34321235        2
Ti       1.80619899       7.89380775       5.34321235        3
Ti       7.89380775      10.36901852       9.36657779        4
Ti       7.89380775       1.80619899       9.36657779        5
Ti       4.28140976       1.80619899       9.36657779        6
Ti       4.28140976      10.36901852       9.36657779        7
Ti      10.36901852       7.89380775       5.34321235        8
Ti      10.36901852       4.28140976       5.34321235        9
Ge       9.13141313       3.04380438       7.35489507       10
Ge       9.13141313       9.13141313       7.35489507       11
Ge       3.04380438       9.13141313       7.35489507       12
Ge       3.04380438       3.04380438       7.35489507       13
O        2.75600492      10.67511722       8.53604139       14
O        2.75600492       1.50010029       8.53604139       15
O        8.84361367       4.58750847       6.17374875       16
O        8.84361367       7.58770904       6.17374875       17
O       10.67511722       2.75600492       6.17374875       18
O       10.67511722       9.41921259       6.17374875       19
O        4.58750847       8.84361367       8.53604139       20
O        4.58750847       3.33160384       8.53604139       21
O        9.41921259      10.67511722       8.53604139       22
O        9.41921259       1.50010029       8.53604139       23
O        3.33160384       4.58750847       6.17374875       24
O        3.33160384       7.58770904       6.17374875       25
O        1.50010029       2.75600492       6.17374875       26
O        1.50010029       9.41921259       6.17374875       27
O        7.58770904       8.84361367       8.53604139       28
O        7.58770904       3.33160384       8.53604139       29
O        1.97508138       4.11252737       8.47789318       30
O        1.97508138       8.06269014       8.47789318       31
O        8.06269014      10.20013613       6.23189696       32
O        8.06269014       1.97508138       6.23189696       33
O        4.11252737       1.97508138       6.23189696       34
O        4.11252737      10.20013613       6.23189696       35
O       10.20013613       8.06269014       8.47789318       36
O       10.20013613       4.11252737       8.47789318       37
Li       6.08760876      18.26282627       0.00000000        0
Li       0.00000000      12.17521751       0.00000000        1
Ti       1.80619899      16.45662727       0.43994897        2
Ti       1.80619899      20.06902526       0.43994897        3
Ti       7.89380775      22.54423603       4.46331441        4
Ti       7.89380775      13.98141650       4.46331441        5
Ti       4.28140976      13.98141650       4.46331441        6
Ti       4.28140976      22.54423603       4.46331441        7
Ti      10.36901852      20.06902526       0.43994897        8
Ti      10.36901852      16.45662727       0.43994897        9
Ge       9.13141313      15.21902189       2.45163169       10
Ge       9.13141313      21.30663064       2.45163169       11
Ge       3.04380438      21.30663064       2.45163169       12
Ge       3.04380438      15.21902189       2.45163169       13
O        2.75600492      22.85033473       3.63277801       14
O        2.75600492      13.67531780       3.63277801       15
O        8.84361367      16.76272598       1.27048537       16
O        8.84361367      19.76292655       1.27048537       17
O       10.67511722      14.93122243       1.27048537       18
O       10.67511722      21.59443010       1.27048537       19
O        4.58750847      21.01883118       3.63277801       20
O        4.58750847      15.50682135       3.63277801       21
O        9.41921259      22.85033473       3.63277801       22
O        9.41921259      13.67531780       3.63277801       23
O        3.33160384      16.76272598       1.27048537       24
O        3.33160384      19.76292655       1.27048537       25
O        1.50010029      14.93122243       1.27048537       26
O        1.50010029      21.59443010       1.27048537       27
O        7.58770904      21.01883118       3.63277801       28
O        7.58770904      15.50682135       3.63277801       29
O        1.97508138      16.28774488       3.57462980       30
O        1.97508138      20.23790765       3.57462980       31
O        8.06269014      22.37535364       1.32863358       32
O        8.06269014      14.15029889       1.32863358       33
O        4.11252737      14.15029889       1.32863358       34
O        4.11252737      22.37535364       1.32863358       35
O       10.20013613      20.23790765       3.57462980       36
O       10.20013613      16.28774488       3.57462980       37
Li       6.08760876      18.26282627       4.90326338        0
Li       0.00000000      12.17521751       4.90326338        1
Ti       1.80619899      16.45662727       5.34321235        2
Ti       1.80619899      20.06902526       5.34321235        3
Ti       7.89380775      22.54423603       9.36657779        4
Ti       7.89380775      13.98141650       9.36657779        5
Ti       4.28140976      13.98141650       9.36657779        6
Ti       4.28140976      22.54423603       9.36657779        7
Ti      10.36901852      20.06902526       5.34321235        8
Ti      10.36901852      16.45662727       5.34321235        9
Ge       9.13141313      15.21902189       7.35489507       10
Ge       9.13141313      21.30663064       7.35489507       11
Ge       3.04380438      21.30663064       7.35489507       12
Ge       3.04380438      15.21902189       7.35489507       13
O        2.75600492      22.85033473       8.53604139       14
O        2.75600492      13.67531780       8.53604139       15
O        8.84361367      16.76272598       6.17374875       16
O        8.84361367      19.76292655       6.17374875       17
O       10.67511722      14.93122243       6.17374875       18
O       10.67511722      21.59443010       6.17374875       19
O        4.58750847      21.01883118       8.53604139       20
O        4.58750847      15.50682135       8.53604139       21
O        9.41921259      22.85033473       8.53604139       22
O        9.41921259      13.67531780       8.53604139       23
O        3.33160384      16.76272598       6.17374875       24
O        3.33160384      19.76292655       6.17374875       25
O        1.50010029      14.93122243       6.17374875       26
O        1.50010029      21.59443010       6.17374875       27
O        7.58770904      21.01883118       8.53604139       28
O        7.58770904      15.50682135       8.53604139       29
O        1.97508138      16.28774488       8.47789318       30
O        1.97508138      20.23790765       8.47789318       31
O        8.06269014      22.37535364       6.23189696       32
O        8.06269014      14.15029889       6.23189696       33
O        4.11252737      14.15029889       6.23189696       34
O        4.11252737      22.37535364       6.23189696       35
O       10.20013613      20.23790765       8.47789318       36
O       10.20013613      16.28774488       8.47789318       37
Li      18.26282627       6.08760876       0.00000000        0
Li      12.17521751       0.00000000       0.00000000        1
Ti      13.98141650       4.28140976       0.43994897        2
Ti      13.98141650       7.89380775       0.43994897        3
Ti      20.06902526      10.36901852       4.46331441        4
Ti      20.06902526       1.80619899       4.46331441        5
Ti      16.45662727       1.80619899       4.46331441        6
Ti      16.45662727      10.36901852       4.46331441        7
Ti      22.54423603       7.89380775       0.43994897        8
Ti      22.54423603       4.28140976       0.43994897        9
Ge      21.30663064       3.04380438       2.45163169       10
Ge      21.30663064       9.13141313       2.45163169       11
Ge      15.21902189       9.13141313       2.45163169       12
Ge      15.21902189       3.04380438       2.45163169       13
O       14.93122243      10.67511722       3.63277801       14
O       14.93122243       1.50010029       3.63277801       15
O       21.01883118       4.58750847       1.27048537       16
O       21.01883118       7.58770904       1.27048537       17
O       22.85033473       2.75600492       1.27048537       18
O       22.85033473       9.41921259       1.27048537       19
O       16.76272598       8.84361367       3.63277801       20
O       16.76272598       3.33160384       3.63277801       21
O       21.59443010      10.67511722       3.63277801       22
O       21.59443010       1.50010029       3.63277801       23
O       15.50682135       4.58750847       1.27048537       24
O       15.50682135       7.58770904       1.27048537       25
O       13.67531780       2.75600492       1.27048537       26
O       13.67531780       9.41921259       1.27048537       27
O       19.76292655       8.84361367       3.63277801       28
O       19.76292655       3.33160384       3.63277801       29
O       14.15029889       4.11252737       3.57462980       30
O       14.15029889       8.06269014       3.57462980       31
O       20.23790765      10.20013613       1.32863358       32
O       20.23790765       1.97508138       1.32863358       33
O       16.28774488       1.97508138       1.32863358       34
O       16.28774488      10.20013613       1.32863358       35
O       22.37535364       8.06269014       3.57462980       36
O       22.37535364       4.11252737       3.57462980       37
Li      18.26282627       6.08760876       4.90326338        0
Li      12.17521751       0.00000000       4.90326338        1
Ti      13.98141650       4.28140976       5.34321235        2
Ti      13.98141650       7.89380775       5.34321235        3
Ti      20.06902526      10.36901852       9.36657779        4
Ti      20.06902526       1.80619899       9.36657779        5
Ti      16.45662727       1.80619899       9.36657779        6
Ti      16.45662727      10.36901852       9.36657779        7
Ti      22.54423603       7.89380775       5.34321235        8
Ti      22.54423603       4.28140976       5.34321235        9
Ge      21.30663064       3.04380438       7.35489507       10
Ge      21.30663064       9.13141313       7.35489507       11
Ge      15.21902189       9.13141313       7.35489507       12
Ge      15.21902189       3.04380438       7.35489507       13
O       14.93122243      10.67511722       8.53604139       14
O       14.93122243       1.50010029       8.53604139       15
O       21.01883118       4.58750847       6.17374875       16
O       21.01883118       7.58770904       6.17374875       17
O       22.85033473       2.75600492       6.17374875       18
O       22.85033473       9.41921259       6.17374875       19
O       16.76272598       8.84361367       8.53604139       20
O       16.76272598       3.33160384       8.53604139       21
O       21.59443010      10.67511722       8.53604139       22
O       21.59443010       1.50010029       8.53604139       23
O       15.50682135       4.58750847       6.17374875       24
O       15.50682135       7.58770904       6.17374875       25
O       13.67531780       2.75600492       6.17374875       26
O       13.67531780       9.41921259       6.17374875       27
O       19.76292655       8.84361367       8.53604139       28
O       19.76292655       3.33160384       8.53604139       29
O       14.15029889       4.11252737       8.47789318       30
O       14.15029889       8.06269014       8.47789318       31
O       20.23790765      10.20013613       6.23189696       32
O       20.23790765       1.97508138       6.23189696       33
O       16.28774488       1.97508138       6.23189696       34
O       16.28774488      10.20013613       6.23189696       35
O       22.37535364       8.06269014       8.47789318       36
O       22.37535364       4.11252737       8.47789318       37
Li      18.26282627      18.26282627       0.00000000        0
Li      12.17521751      12.17521751       0.00000000        1
Ti      13.98141650      16.45662727       0.43994897        2
Ti      13.98141650      20.06902526       0.43994897        3
Ti      20.06902526      22.54423603       4.46331441        4
Ti      20.06902526      13.98141650       4.46331441        5
Ti      16.45662727      13.98141650       4.46331441        6
Ti      16.45662727      22.54423603       4.46331441        7
Ti      22.54423603      20.06902526       0.43994897        8
Ti      22.54423603      16.45662727       0.43994897        9
Ge      21.30663064      15.21902189       2.45163169       10
Ge      21.30663064      21.30663064       2.45163169       11
Ge      15.21902189      21.30663064       2.45163169       12
Ge      15.21902189      15.21902189       2.45163169       13
O       14.93122243      22.85033473       3.63277801       14
O       14.93122243      13.67531780       3.63277801       15
O       21.01883118      16.76272598       1.27048537       16
O       21.01883118      19.76292655       1.27048537       17
O       22.85033473      14.93122243       1.27048537       18
O       22.85033473      21.59443010       1.27048537       19
O       16.76272598      21.01883118       3.63277801       20
O       16.76272598      15.50682135       3.63277801       21
O       21.59443010      22.85033473       3.63277801       22
O       21.59443010      13.67531780       3.63277801       23
O       15.50682135      16.76272598       1.27048537       24
O       15.50682135      19.76292655       1.27048537       25
O       13.67531780      14.93122243       1.27048537       26
O       13.67531780      21.59443010       1.27048537       27
O       19.76292655      21.01883118       3.63277801       28
O       19.76292655      15.50682135       3.63277801       29
O       14.15029889      16.28774488       3.57462980       30
O       14.15029889      20.23790765       3.57462980       31
O       20.23790765      22.37535364       1.32863358       32
O       20.23790765      14.15029889       1.32863358       33
O       16.28774488      14.15029889       1.32863358       34
O       16.28774488      22.37535364       1.32863358       35
O       22.37535364      20.23790765       3.57462980       36
O       22.37535364      16.28774488       3.57462980       37
Li      18.26282627      18.26282627       4.90326338        0
Li      12.17521751      12.17521751       4.90326338        1
Ti      13.98141650      16.45662727       5.34321235        2
Ti      13.98141650      20.06902526       5.34321235        3
Ti      20.06902526      22.54423603       9.36657779        4
Ti      20.06902526      13.98141650       9.36657779        5
Ti      16.45662727      13.98141650       9.36657779        6
Ti      16.45662727      22.54423603       9.36657779        7
Ti      22.54423603      20.06902526       5.34321235        8
Ti      22.54423603      16.45662727       5.34321235        9
Ge      21.30663064      15.21902189       7.35489507       10
Ge      21.30663064      21.30663064       7.35489507       11
Ge      15.21902189      21.30663064       7.35489507       12
Ge      15.21902189      15.21902189       7.35489507       13
O       14.93122243      22.85033473       8.53604139       14
O       14.93122243      13.67531780       8.53604139       15
O       21.01883118      16.76272598       6.17374875       16
O       21.01883118      19.76292655       6.17374875       17
O       22.85033473      14.93122243       6.17374875       18
O       22.85033473      21.59443010       6.17374875       19
O       16.76272598      21.01883118       8.53604139       20
O       16.76272598      15.50682135       8.53604139       21
O       21.59443010      22.85033473       8.53604139       22
O       21.59443010      13.67531780       8.53604139       23
O       15.50682135      16.76272598       6.17374875       24
O       15.50682135      19.76292655       6.17374875       25
O       13.67531780      14.93122243       6.17374875       26
O       13.67531780      21.59443010       6.17374875       27
O       19.76292655      21.01883118       8.53604139       28
O       19.76292655      15.50682135       8.53604139       29
O       14.15029889      16.28774488       8.47789318       30
O       14.15029889      20.23790765       8.47789318       31
O       20.23790765      22.37535364       6.23189696       32
O       20.23790765      14.15029889       6.23189696       33
O       16.28774488      14.15029889       6.23189696       34
O       16.28774488      22.37535364       6.23189696       35
O       22.37535364      20.23790765       8.47789318       36
O       22.37535364      16.28774488       8.47789318       37
