288
Lattice="27.4686611057353 0.0 0.0 13.73433007458761 23.78855860164742 0.0 13.73433007458761 7.929519349792398 22.428068200923626" Properties=species:S:1:pos:R:3:spacegroup_kinds:I:1 pbc="T T T"
Ge      15.75706678       9.09734696       0.57445652        0
Ge      11.71159394       9.09734698       0.57445653        1
Ge      11.71159394       3.57405174       8.38557550        2
Ge      15.75706678       3.57405172       8.38557549        3
Ge      15.81818165       9.13263165       8.93508195        4
Ge      15.81818165      11.46828655       5.63196713        5
Ge      11.65047883      11.46828654       5.63196712        6
Ge      11.65047883       9.13263163       8.93508194        7
Ge      13.73433045       5.59386466       0.57445653        8
Ge      13.73433045       2.40622432       5.08246069        9
Ge      17.84091815       7.96480423       5.63196713       10
Ge       9.62774250       7.96480424       5.63196714       11
Ge       8.95101640       8.35551218       8.38557550       12
Ge       8.95101640      10.69116709       5.08246069       13
Ge      18.51764413      10.69116707       5.08246068       14
Ge      18.51764414       8.35551217       8.38557549       15
Ge      15.75706681       4.35546768       5.63196712       16
Ge      11.71159397       4.35546770       5.63196714       17
Ge      11.71159397       6.76169209       2.22905201       18
Ge      15.75706681       6.76169207       2.22905199       19
Ge      10.97375273      11.85899448       8.38557549       20
Ge      16.49490763      11.85899449       8.38557549       21
Ge      13.73433030       5.52329509       8.93508194       22
Ge      13.73433030      10.26517438       2.22905199       23
Ge      20.60149545      11.89427922      10.07127258       24
Ge      20.60149545      13.46004653       7.85694324       25
Ge      15.09032452       8.71240313       6.16059939       26
Ge      12.37833606       8.71240313       6.16059939       27
Ge      21.95748973      11.11139559       7.85694324       28
Ge      19.24550126      11.11139559       7.85694324       29
Ge      13.73433034       6.36375219       6.16059939       30
Ge      13.73433034       7.92951950       3.94627004       31
Ge      13.73433037       7.92951952       1.40175426       32
Ge      13.73433037       3.96475971       7.00877131       33
Ge      17.16791289       9.91189936       7.00877131       34
Ge      10.30074762       9.91189936       7.00877131       35
Ge      22.62423182      13.06210663      11.78849062        0
Ge      18.57875898      13.06210665      11.78849063        1
Ge      18.57875898       7.53881141      19.59960960        2
Ge      22.62423182       7.53881139      19.59960959        3
Ge      22.68534669      13.09739132      20.14911605        4
Ge      22.68534669      15.43304622      16.84600123        5
Ge      18.51764387      15.43304621      16.84600122        6
Ge      18.51764387      13.09739130      20.14911604        7
Ge      20.60149549       9.55862433      11.78849063        8
Ge      20.60149549       6.37098399      16.29649479        9
Ge      24.70808319      11.92956390      16.84600123       10
Ge      16.49490754      11.92956391      16.84600124       11
Ge      15.81818144      12.32027185      19.59960960       12
Ge      15.81818144      14.65592676      16.29649479       13
Ge      25.38480917      14.65592674      16.29649478       14
Ge      25.38480918      12.32027184      19.59960959       15
Ge      22.62423185       8.32022735      16.84600122       16
Ge      18.57875901       8.32022737      16.84600124       17
Ge      18.57875901      10.72645176      13.44308611       18
Ge      22.62423185      10.72645174      13.44308609       19
Ge      17.84091777      15.82375415      19.59960959       20
Ge      23.36207267      15.82375416      19.59960959       21
Ge      20.60149534       9.48805476      20.14911604       22
Ge      20.60149534      14.22993405      13.44308609       23
Ge      27.46866049      15.85903889      21.28530668       24
Ge      27.46866049      17.42480620      19.07097734       25
Ge      21.95748956      12.67716280      17.37463349       26
Ge      19.24550110      12.67716280      17.37463349       27
Ge      28.82465477      15.07615526      19.07097734       28
Ge      26.11266630      15.07615526      19.07097734       29
Ge      20.60149538      10.32851186      17.37463349       30
Ge      20.60149538      11.89427917      15.16030414       31
Ge      20.60149541      11.89427919      12.61578836       32
Ge      20.60149541       7.92951938      18.22280541       33
Ge      24.03507793      13.87665903      18.22280541       34
Ge      17.16791266      13.87665903      18.22280541       35
Ge      22.62423182      20.99162626       0.57445652        0
Ge      18.57875898      20.99162628       0.57445653        1
Ge      18.57875898      15.46833104       8.38557550        2
Ge      22.62423182      15.46833102       8.38557549        3
Ge      22.68534669      21.02691095       8.93508195        4
Ge      22.68534669      23.36256585       5.63196713        5
Ge      18.51764387      23.36256584       5.63196712        6
Ge      18.51764387      21.02691093       8.93508194        7
Ge      20.60149549      17.48814396       0.57445653        8
Ge      20.60149549      14.30050362       5.08246069        9
Ge      24.70808319      19.85908353       5.63196713       10
Ge      16.49490754      19.85908354       5.63196714       11
Ge      15.81818144      20.24979148       8.38557550       12
Ge      15.81818144      22.58544639       5.08246069       13
Ge      25.38480917      22.58544637       5.08246068       14
Ge      25.38480918      20.24979147       8.38557549       15
Ge      22.62423185      16.24974698       5.63196712       16
Ge      18.57875901      16.24974700       5.63196714       17
Ge      18.57875901      18.65597139       2.22905201       18
Ge      22.62423185      18.65597137       2.22905199       19
Ge      17.84091777      23.75327378       8.38557549       20
Ge      23.36207267      23.75327379       8.38557549       21
Ge      20.60149534      17.41757439       8.93508194       22
Ge      20.60149534      22.15945368       2.22905199       23
Ge      27.46866049      23.78855852      10.07127258       24
Ge      27.46866049      25.35432583       7.85694324       25
Ge      21.95748956      20.60668243       6.16059939       26
Ge      19.24550110      20.60668243       6.16059939       27
Ge      28.82465477      23.00567489       7.85694324       28
Ge      26.11266630      23.00567489       7.85694324       29
Ge      20.60149538      18.25803149       6.16059939       30
Ge      20.60149538      19.82379880       3.94627004       31
Ge      20.60149541      19.82379882       1.40175426       32
Ge      20.60149541      15.85903901       7.00877131       33
Ge      24.03507793      21.80617866       7.00877131       34
Ge      17.16791266      21.80617866       7.00877131       35
Ge      29.49139685      24.95638594      11.78849062        0
Ge      25.44592401      24.95638596      11.78849063        1
Ge      25.44592401      19.43309072      19.59960960        2
Ge      29.49139685      19.43309070      19.59960959        3
Ge      29.55251172      24.99167063      20.14911605        4
Ge      29.55251172      27.32732553      16.84600123        5
Ge      25.38480890      27.32732552      16.84600122        6
Ge      25.38480890      24.99167061      20.14911604        7
Ge      27.46866052      21.45290364      11.78849063        8
Ge      27.46866052      18.26526330      16.29649479        9
Ge      31.57524822      23.82384321      16.84600123       10
Ge      23.36207257      23.82384322      16.84600124       11
Ge      22.68534647      24.21455116      19.59960960       12
Ge      22.68534647      26.55020607      16.29649479       13
Ge      32.25197420      26.55020605      16.29649478       14
Ge      32.25197421      24.21455115      19.59960959       15
Ge      29.49139688      20.21450666      16.84600122       16
Ge      25.44592404      20.21450668      16.84600124       17
Ge      25.44592404      22.62073107      13.44308611       18
Ge      29.49139688      22.62073105      13.44308609       19
Ge      24.70808280      27.71803346      19.59960959       20
Ge      30.22923770      27.71803347      19.59960959       21
Ge      27.46866037      21.38233407      20.14911604       22
Ge      27.46866037      26.12421336      13.44308609       23
Ge      34.33582552      27.75331820      21.28530668       24
Ge      34.33582552      29.31908551      19.07097734       25
Ge      28.82465459      24.57144211      17.37463349       26
Ge      26.11266613      24.57144211      17.37463349       27
Ge      35.69181980      26.97043457      19.07097734       28
Ge      32.97983133      26.97043457      19.07097734       29
Ge      27.46866041      22.22279117      17.37463349       30
Ge      27.46866041      23.78855848      15.16030414       31
Ge      27.46866044      23.78855850      12.61578836       32
Ge      27.46866044      19.82379869      18.22280541       33
Ge      30.90224296      25.77093834      18.22280541       34
Ge      24.03507769      25.77093834      18.22280541       35
Ge      29.49139733       9.09734696       0.57445652        0
Ge      25.44592449       9.09734698       0.57445653        1
Ge      25.44592449       3.57405174       8.38557550        2
Ge      29.49139733       3.57405172       8.38557549        3
Ge      29.55251220       9.13263165       8.93508195        4
Ge      29.55251220      11.46828655       5.63196713        5
Ge      25.38480938      11.46828654       5.63196712        6
Ge      25.38480938       9.13263163       8.93508194        7
Ge      27.46866100       5.59386466       0.57445653        8
Ge      27.46866100       2.40622432       5.08246069        9
Ge      31.57524870       7.96480423       5.63196713       10
Ge      23.36207305       7.96480424       5.63196714       11
Ge      22.68534695       8.35551218       8.38557550       12
Ge      22.68534695      10.69116709       5.08246069       13
Ge      32.25197468      10.69116707       5.08246068       14
Ge      32.25197469       8.35551217       8.38557549       15
Ge      29.49139736       4.35546768       5.63196712       16
Ge      25.44592452       4.35546770       5.63196714       17
Ge      25.44592452       6.76169209       2.22905201       18
Ge      29.49139736       6.76169207       2.22905199       19
Ge      24.70808328      11.85899448       8.38557549       20
Ge      30.22923818      11.85899449       8.38557549       21
Ge      27.46866085       5.52329509       8.93508194       22
Ge      27.46866085      10.26517438       2.22905199       23
Ge      34.33582600      11.89427922      10.07127258       24
Ge      34.33582600      13.46004653       7.85694324       25
Ge      28.82465507       8.71240313       6.16059939       26
Ge      26.11266661       8.71240313       6.16059939       27
Ge      35.69182028      11.11139559       7.85694324       28
Ge      32.97983181      11.11139559       7.85694324       29
Ge      27.46866089       6.36375219       6.16059939       30
Ge      27.46866089       7.92951950       3.94627004       31
Ge      27.46866092       7.92951952       1.40175426       32
Ge      27.46866092       3.96475971       7.00877131       33
Ge      30.90224344       9.91189936       7.00877131       34
Ge      24.03507817       9.91189936       7.00877131       35
Ge      36.35856237      13.06210663      11.78849062        0
Ge      32.31308953      13.06210665      11.78849063        1
Ge      32.31308953       7.53881141      19.59960960        2
Ge      36.35856237       7.53881139      19.59960959        3
Ge      36.41967724      13.09739132      20.14911605        4
Ge      36.41967724      15.43304622      16.84600123        5
Ge      32.25197442      15.43304621      16.84600122        6
Ge      32.25197442      13.09739130      20.14911604        7
Ge      34.33582604       9.55862433      11.78849063        8
Ge      34.33582604       6.37098399      16.29649479        9
Ge      38.44241374      11.92956390      16.84600123       10
Ge      30.22923809      11.92956391      16.84600124       11
Ge      29.55251199      12.32027185      19.59960960       12
Ge      29.55251199      14.65592676      16.29649479       13
Ge      39.11913972      14.65592674      16.29649478       14
Ge      39.11913973      12.32027184      19.59960959       15
Ge      36.35856240       8.32022735      16.84600122       16
Ge      32.31308956       8.32022737      16.84600124       17
Ge      32.31308956      10.72645176      13.44308611       18
Ge      36.35856240      10.72645174      13.44308609       19
Ge      31.57524832      15.82375415      19.59960959       20
Ge      37.09640322      15.82375416      19.59960959       21
Ge      34.33582589       9.48805476      20.14911604       22
Ge      34.33582589      14.22993405      13.44308609       23
Ge      41.20299104      15.85903889      21.28530668       24
Ge      41.20299104      17.42480620      19.07097734       25
Ge      35.69182011      12.67716280      17.37463349       26
Ge      32.97983165      12.67716280      17.37463349       27
Ge      42.55898532      15.07615526      19.07097734       28
Ge      39.84699685      15.07615526      19.07097734       29
Ge      34.33582593      10.32851186      17.37463349       30
Ge      34.33582593      11.89427917      15.16030414       31
Ge      34.33582596      11.89427919      12.61578836       32
Ge      34.33582596       7.92951938      18.22280541       33
Ge      37.76940848      13.87665903      18.22280541       34
Ge      30.90224321      13.87665903      18.22280541       35
Ge      36.35856237      20.99162626       0.57445652        0
Ge      32.31308953      20.99162628       0.57445653        1
Ge      32.31308953      15.46833104       8.38557550        2
Ge      36.35856237      15.46833102       8.38557549        3
Ge      36.41967724      21.02691095       8.93508195        4
Ge      36.41967724      23.36256585       5.63196713        5
Ge      32.25197442      23.36256584       5.63196712        6
Ge      32.25197442      21.02691093       8.93508194        7
Ge      34.33582604      17.48814396       0.57445653        8
Ge      34.33582604      14.30050362       5.08246069        9
Ge      38.44241374      19.85908353       5.63196713       10
Ge      30.22923809      19.85908354       5.63196714       11
Ge      29.55251199      20.24979148       8.38557550       12
Ge      29.55251199      22.58544639       5.08246069       13
Ge      39.11913972      22.58544637       5.08246068       14
Ge      39.11913973      20.24979147       8.38557549       15
Ge      36.35856240      16.24974698       5.63196712       16
Ge      32.31308956      16.24974700       5.63196714       17
Ge      32.31308956      18.65597139       2.22905201       18
Ge      36.35856240      18.65597137       2.22905199       19
Ge      31.57524832      23.75327378       8.38557549       20
Ge      37.09640322      23.75327379       8.38557549       21
Ge      34.33582589      17.41757439       8.93508194       22
Ge      34.33582589      22.15945368       2.22905199       23
Ge      41.20299104      23.78855852      10.07127258       24
Ge      41.20299104      25.35432583       7.85694324       25
Ge      35.69182011      20.60668243       6.16059939       26
Ge      32.97983165      20.60668243       6.16059939       27
Ge      42.55898532      23.00567489       7.85694324       28
Ge      39.84699685      23.00567489       7.85694324       29
Ge      34.33582593      18.25803149       6.16059939       30
Ge      34.33582593      19.82379880       3.94627004       31
Ge      34.33582596      19.82379882       1.40175426       32
Ge      34.33582596      15.85903901       7.00877131       33
Ge      37.76940848      21.80617866       7.00877131       34
Ge      30.90224321      21.80617866       7.00877131       35
Ge      43.22572741      24.95638594      11.78849062        0
Ge      39.18025457      24.95638596      11.78849063        1
Ge      39.18025457      19.43309072      19.59960960        2
Ge      43.22572741      19.43309070      19.59960959        3
Ge      43.28684228      24.99167063      20.14911605        4
Ge      43.28684228      27.32732553      16.84600123        5
Ge      39.11913946      27.32732552      16.84600122        6
Ge      39.11913946      24.99167061      20.14911604        7
Ge      41.20299108      21.45290364      11.78849063        8
Ge      41.20299108      18.26526330      16.29649479        9
Ge      45.30957878      23.82384321      16.84600123       10
Ge      37.09640313      23.82384322      16.84600124       11
Ge      36.41967703      24.21455116      19.59960960       12
Ge      36.41967703      26.55020607      16.29649479       13
Ge      45.98630476      26.55020605      16.29649478       14
Ge      45.98630477      24.21455115      19.59960959       15
Ge      43.22572744      20.21450666      16.84600122       16
Ge      39.18025460      20.21450668      16.84600124       17
Ge      39.18025460      22.62073107      13.44308611       18
Ge      43.22572744      22.62073105      13.44308609       19
Ge      38.44241336      27.71803346      19.59960959       20
Ge      43.96356826      27.71803347      19.59960959       21
Ge      41.20299093      21.38233407      20.14911604       22
Ge      41.20299093      26.12421336      13.44308609       23
Ge      48.07015608      27.75331820      21.28530668       24
Ge      48.07015608      29.31908551      19.07097734       25
Ge      42.55898515      24.57144211      17.37463349       26
Ge      39.84699669      24.57144211      17.37463349       27
Ge      49.42615036      26.97043457      19.07097734       28
Ge      46.71416189      26.97043457      19.07097734       29
Ge      41.20299097      22.22279117      17.37463349       30
Ge      41.20299097      23.78855848      15.16030414       31
Ge      41.20299100      23.78855850      12.61578836       32
Ge      41.20299100      19.82379869      18.22280541       33
Ge      44.63657352      25.77093834      18.22280541       34
Ge      37.76940825      25.77093834      18.22280541       35
