256
Lattice="15.799240663800239 0.0 0.0 7.899620331900121 13.682543775355123 0.0 7.899620331900121 4.560847925118376 12.90002598324719" Properties=species:S:1:pos:R:3:spacegroup_kinds:I:1 pbc="T T T"
Sc       7.89962033       4.56084793       3.22500650        0
Sc      11.84943050       6.84127189       4.83750974        1
Ge       0.00000000       0.00000000       0.00000000        2
Ge       3.94981017       2.28042396       1.61250325        3
O       11.84943050       4.17831389       4.82193426        4
O       11.84943050       5.93893452       2.33204069        5
O        9.42436252       2.77820024       1.96448423        6
O        6.37487814       2.77820024       1.96448423        7
O        9.54324122       8.17275089       4.82193426        8
O       14.15561977       8.17275089       4.82193426        9
O       14.15561977       7.27041351       6.09803201       10
O        9.54324122       7.27041351       6.09803201       11
O        7.11817324       6.77263724       1.96448423       12
O        7.11817324       4.10967924       5.73047555       13
O        8.68106742       4.10967924       5.73047555       14
O        8.68106742       6.77263724       1.96448423       15
O       13.37417269       8.62391957       6.09803201       16
O       10.32468831       8.62391957       6.09803201       17
O        7.89962033       5.46318530       5.73047555       18
O        7.89962033       7.22380592       3.24058198       19
O       11.06798341       7.29244057       2.33204069       20
O       11.06798341       4.62948257       6.09803201       21
O       12.63087759       4.62948257       6.09803201       22
O       12.63087759       7.29244057       2.33204069       23
O        5.59343106       4.13170630       1.96448423       24
O       10.20580961       4.13170630       1.96448423       25
O       10.20580961       3.22936893       3.24058198       26
O        5.59343106       3.22936893       3.24058198       27
O        7.89962033       4.56084793       0.80625162       28
O        7.89962033       2.28042396       4.03125812       29
O        9.87452541       5.70105991       4.03125812       30
O        5.92471525       5.70105991       4.03125812       31
Sc      11.84943050       6.84127189       9.67501949        0
Sc      15.79924067       9.12169585      11.28752273        1
Ge       3.94981017       2.28042396       6.45001299        2
Ge       7.89962034       4.56084792       8.06251624        3
O       15.79924067       6.45873785      11.27194725        4
O       15.79924067       8.21935848       8.78205368        5
O       13.37417269       5.05862420       8.41449722        6
O       10.32468831       5.05862420       8.41449722        7
O       13.49305139      10.45317485      11.27194725        8
O       18.10542994      10.45317485      11.27194725        9
O       18.10542994       9.55083747      12.54804500       10
O       13.49305139       9.55083747      12.54804500       11
O       11.06798341       9.05306120       8.41449722       12
O       11.06798341       6.39010320      12.18048854       13
O       12.63087759       6.39010320      12.18048854       14
O       12.63087759       9.05306120       8.41449722       15
O       17.32398286      10.90434353      12.54804500       16
O       14.27449848      10.90434353      12.54804500       17
O       11.84943050       7.74360926      12.18048854       18
O       11.84943050       9.50422988       9.69059497       19
O       15.01779358       9.57286453       8.78205368       20
O       15.01779358       6.90990653      12.54804500       21
O       16.58068776       6.90990653      12.54804500       22
O       16.58068776       9.57286453       8.78205368       23
O        9.54324123       6.41213026       8.41449722       24
O       14.15561978       6.41213026       8.41449722       25
O       14.15561978       5.50979289       9.69059497       26
O        9.54324123       5.50979289       9.69059497       27
O       11.84943050       6.84127189       7.25626461       28
O       11.84943050       4.56084792      10.48127111       29
O       13.82433558       7.98148387      10.48127111       30
O        9.87452542       7.98148387      10.48127111       31
Sc      11.84943050      11.40211982       3.22500650        0
Sc      15.79924067      13.68254378       4.83750974        1
Ge       3.94981017       6.84127189       0.00000000        2
Ge       7.89962034       9.12169585       1.61250325        3
O       15.79924067      11.01958578       4.82193426        4
O       15.79924067      12.78020641       2.33204069        5
O       13.37417269       9.61947213       1.96448423        6
O       10.32468831       9.61947213       1.96448423        7
O       13.49305139      15.01402278       4.82193426        8
O       18.10542994      15.01402278       4.82193426        9
O       18.10542994      14.11168540       6.09803201       10
O       13.49305139      14.11168540       6.09803201       11
O       11.06798341      13.61390913       1.96448423       12
O       11.06798341      10.95095113       5.73047555       13
O       12.63087759      10.95095113       5.73047555       14
O       12.63087759      13.61390913       1.96448423       15
O       17.32398286      15.46519146       6.09803201       16
O       14.27449848      15.46519146       6.09803201       17
O       11.84943050      12.30445719       5.73047555       18
O       11.84943050      14.06507781       3.24058198       19
O       15.01779358      14.13371246       2.33204069       20
O       15.01779358      11.47075446       6.09803201       21
O       16.58068776      11.47075446       6.09803201       22
O       16.58068776      14.13371246       2.33204069       23
O        9.54324123      10.97297819       1.96448423       24
O       14.15561978      10.97297819       1.96448423       25
O       14.15561978      10.07064082       3.24058198       26
O        9.54324123      10.07064082       3.24058198       27
O       11.84943050      11.40211982       0.80625162       28
O       11.84943050       9.12169585       4.03125812       29
O       13.82433558      12.54233180       4.03125812       30
O        9.87452542      12.54233180       4.03125812       31
Sc      15.79924066      13.68254378       9.67501949        0
Sc      19.74905083      15.96296774      11.28752273        1
Ge       7.89962033       9.12169585       6.45001299        2
Ge      11.84943050      11.40211981       8.06251624        3
O       19.74905083      13.30000974      11.27194725        4
O       19.74905083      15.06063037       8.78205368        5
O       17.32398285      11.89989609       8.41449722        6
O       14.27449847      11.89989609       8.41449722        7
O       17.44286155      17.29444674      11.27194725        8
O       22.05524010      17.29444674      11.27194725        9
O       22.05524010      16.39210936      12.54804500       10
O       17.44286155      16.39210936      12.54804500       11
O       15.01779357      15.89433309       8.41449722       12
O       15.01779357      13.23137509      12.18048854       13
O       16.58068775      13.23137509      12.18048854       14
O       16.58068775      15.89433309       8.41449722       15
O       21.27379302      17.74561542      12.54804500       16
O       18.22430864      17.74561542      12.54804500       17
O       15.79924066      14.58488115      12.18048854       18
O       15.79924066      16.34550177       9.69059497       19
O       18.96760374      16.41413642       8.78205368       20
O       18.96760374      13.75117842      12.54804500       21
O       20.53049792      13.75117842      12.54804500       22
O       20.53049792      16.41413642       8.78205368       23
O       13.49305139      13.25340215       8.41449722       24
O       18.10542994      13.25340215       8.41449722       25
O       18.10542994      12.35106478       9.69059497       26
O       13.49305139      12.35106478       9.69059497       27
O       15.79924066      13.68254378       7.25626461       28
O       15.79924066      11.40211981      10.48127111       29
O       17.77414574      14.82275576      10.48127111       30
O       13.82433558      14.82275576      10.48127111       31
Sc      15.79924066       4.56084793       3.22500650        0
Sc      19.74905083       6.84127189       4.83750974        1
Ge       7.89962033       0.00000000       0.00000000        2
Ge      11.84943050       2.28042396       1.61250325        3
O       19.74905083       4.17831389       4.82193426        4
O       19.74905083       5.93893452       2.33204069        5
O       17.32398285       2.77820024       1.96448423        6
O       14.27449847       2.77820024       1.96448423        7
O       17.44286155       8.17275089       4.82193426        8
O       22.05524010       8.17275089       4.82193426        9
O       22.05524010       7.27041351       6.09803201       10
O       17.44286155       7.27041351       6.09803201       11
O       15.01779357       6.77263724       1.96448423       12
O       15.01779357       4.10967924       5.73047555       13
O       16.58068775       4.10967924       5.73047555       14
O       16.58068775       6.77263724       1.96448423       15
O       21.27379302       8.62391957       6.09803201       16
O       18.22430864       8.62391957       6.09803201       17
O       15.79924066       5.46318530       5.73047555       18
O       15.79924066       7.22380592       3.24058198       19
O       18.96760374       7.29244057       2.33204069       20
O       18.96760374       4.62948257       6.09803201       21
O       20.53049792       4.62948257       6.09803201       22
O       20.53049792       7.29244057       2.33204069       23
O       13.49305139       4.13170630       1.96448423       24
O       18.10542994       4.13170630       1.96448423       25
O       18.10542994       3.22936893       3.24058198       26
O       13.49305139       3.22936893       3.24058198       27
O       15.79924066       4.56084793       0.80625162       28
O       15.79924066       2.28042396       4.03125812       29
O       17.77414574       5.70105991       4.03125812       30
O       13.82433558       5.70105991       4.03125812       31
Sc      19.74905083       6.84127189       9.67501949        0
Sc      23.69886100       9.12169585      11.28752273        1
Ge      11.84943050       2.28042396       6.45001299        2
Ge      15.79924067       4.56084792       8.06251624        3
O       23.69886100       6.45873785      11.27194725        4
O       23.69886100       8.21935848       8.78205368        5
O       21.27379302       5.05862420       8.41449722        6
O       18.22430864       5.05862420       8.41449722        7
O       21.39267172      10.45317485      11.27194725        8
O       26.00505027      10.45317485      11.27194725        9
O       26.00505027       9.55083747      12.54804500       10
O       21.39267172       9.55083747      12.54804500       11
O       18.96760374       9.05306120       8.41449722       12
O       18.96760374       6.39010320      12.18048854       13
O       20.53049792       6.39010320      12.18048854       14
O       20.53049792       9.05306120       8.41449722       15
O       25.22360319      10.90434353      12.54804500       16
O       22.17411881      10.90434353      12.54804500       17
O       19.74905083       7.74360926      12.18048854       18
O       19.74905083       9.50422988       9.69059497       19
O       22.91741391       9.57286453       8.78205368       20
O       22.91741391       6.90990653      12.54804500       21
O       24.48030809       6.90990653      12.54804500       22
O       24.48030809       9.57286453       8.78205368       23
O       17.44286156       6.41213026       8.41449722       24
O       22.05524011       6.41213026       8.41449722       25
O       22.05524011       5.50979289       9.69059497       26
O       17.44286156       5.50979289       9.69059497       27
O       19.74905083       6.84127189       7.25626461       28
O       19.74905083       4.56084792      10.48127111       29
O       21.72395591       7.98148387      10.48127111       30
O       17.77414575       7.98148387      10.48127111       31
Sc      19.74905083      11.40211982       3.22500650        0
Sc      23.69886100      13.68254378       4.83750974        1
Ge      11.84943050       6.84127189       0.00000000        2
Ge      15.79924067       9.12169585       1.61250325        3
O       23.69886100      11.01958578       4.82193426        4
O       23.69886100      12.78020641       2.33204069        5
O       21.27379302       9.61947213       1.96448423        6
O       18.22430864       9.61947213       1.96448423        7
O       21.39267172      15.01402278       4.82193426        8
O       26.00505027      15.01402278       4.82193426        9
O       26.00505027      14.11168540       6.09803201       10
O       21.39267172      14.11168540       6.09803201       11
O       18.96760374      13.61390913       1.96448423       12
O       18.96760374      10.95095113       5.73047555       13
O       20.53049792      10.95095113       5.73047555       14
O       20.53049792      13.61390913       1.96448423       15
O       25.22360319      15.46519146       6.09803201       16
O       22.17411881      15.46519146       6.09803201       17
O       19.74905083      12.30445719       5.73047555       18
O       19.74905083      14.06507781       3.24058198       19
O       22.91741391      14.13371246       2.33204069       20
O       22.91741391      11.47075446       6.09803201       21
O       24.48030809      11.47075446       6.09803201       22
O       24.48030809      14.13371246       2.33204069       23
O       17.44286156      10.97297819       1.96448423       24
O       22.05524011      10.97297819       1.96448423       25
O       22.05524011      10.07064082       3.24058198       26
O       17.44286156      10.07064082       3.24058198       27
O       19.74905083      11.40211982       0.80625162       28
O       19.74905083       9.12169585       4.03125812       29
O       21.72395591      12.54233180       4.03125812       30
O       17.77414575      12.54233180       4.03125812       31
Sc      23.69886099      13.68254378       9.67501949        0
Sc      27.64867116      15.96296774      11.28752273        1
Ge      15.79924066       9.12169585       6.45001299        2
Ge      19.74905083      11.40211981       8.06251624        3
O       27.64867116      13.30000974      11.27194725        4
O       27.64867116      15.06063037       8.78205368        5
O       25.22360318      11.89989609       8.41449722        6
O       22.17411880      11.89989609       8.41449722        7
O       25.34248188      17.29444674      11.27194725        8
O       29.95486043      17.29444674      11.27194725        9
O       29.95486043      16.39210936      12.54804500       10
O       25.34248188      16.39210936      12.54804500       11
O       22.91741390      15.89433309       8.41449722       12
O       22.91741390      13.23137509      12.18048854       13
O       24.48030808      13.23137509      12.18048854       14
O       24.48030808      15.89433309       8.41449722       15
O       29.17341335      17.74561542      12.54804500       16
O       26.12392897      17.74561542      12.54804500       17
O       23.69886099      14.58488115      12.18048854       18
O       23.69886099      16.34550177       9.69059497       19
O       26.86722407      16.41413642       8.78205368       20
O       26.86722407      13.75117842      12.54804500       21
O       28.43011825      13.75117842      12.54804500       22
O       28.43011825      16.41413642       8.78205368       23
O       21.39267172      13.25340215       8.41449722       24
O       26.00505027      13.25340215       8.41449722       25
O       26.00505027      12.35106478       9.69059497       26
O       21.39267172      12.35106478       9.69059497       27
O       23.69886099      13.68254378       7.25626461       28
O       23.69886099      11.40211981      10.48127111       29
O       25.67376607      14.82275576      10.48127111       30
O       21.72395591      14.82275576      10.48127111       31
