128
Lattice="10.1595566836248 0.0 0.0 0.0 10.1595566836248 0.0 0.0 0.0 10.1595566836248" Properties=species:S:1:pos:R:3:spacegroup_kinds:I:1 pbc="T T T"
P        3.80983376       3.80983376       1.26994459        0
P        1.26994459       3.80983376       3.80983376        1
P        3.80983376       1.26994459       3.80983376        2
P        1.26994459       1.26994459       1.26994459        3
H        2.53988917       0.00000000       2.04195593        4
H        0.00000000       3.03782241       2.53988917        5
H        3.03782241       2.53988917       0.00000000        6
H        0.00000000       4.58184511       2.53988917        7
H        2.53988917       0.00000000       0.49793324        8
H        4.58184511       2.53988917       0.00000000        9
H        2.53988917       0.00000000       3.03782241       10
H        2.04195593       2.53988917       0.00000000       11
H        2.53988917       0.00000000       4.58184511       12
H        0.49793324       2.53988917       0.00000000       13
H        0.00000000       2.04195593       2.53988917       14
H        0.00000000       0.49793324       2.53988917       15
P        3.80983376       3.80983376       6.34972293        0
P        1.26994459       3.80983376       8.88961210        1
P        3.80983376       1.26994459       8.88961210        2
P        1.26994459       1.26994459       6.34972293        3
H        2.53988917       0.00000000       7.12173427        4
H        0.00000000       3.03782241       7.61966751        5
H        3.03782241       2.53988917       5.07977834        6
H        0.00000000       4.58184511       7.61966751        7
H        2.53988917       0.00000000       5.57771158        8
H        4.58184511       2.53988917       5.07977834        9
H        2.53988917       0.00000000       8.11760075       10
H        2.04195593       2.53988917       5.07977834       11
H        2.53988917       0.00000000       9.66162345       12
H        0.49793324       2.53988917       5.07977834       13
H        0.00000000       2.04195593       7.61966751       14
H        0.00000000       0.49793324       7.61966751       15
P        3.80983376       8.88961210       1.26994459        0
P        1.26994459       8.88961210       3.80983376        1
P        3.80983376       6.34972293       3.80983376        2
P        1.26994459       6.34972293       1.26994459        3
H        2.53988917       5.07977834       2.04195593        4
H        0.00000000       8.11760075       2.53988917        5
H        3.03782241       7.61966751       0.00000000        6
H        0.00000000       9.66162345       2.53988917        7
H        2.53988917       5.07977834       0.49793324        8
H        4.58184511       7.61966751       0.00000000        9
H        2.53988917       5.07977834       3.03782241       10
H        2.04195593       7.61966751       0.00000000       11
H        2.53988917       5.07977834       4.58184511       12
H        0.49793324       7.61966751       0.00000000       13
H        0.00000000       7.12173427       2.53988917       14
H        0.00000000       5.57771158       2.53988917       15
P        3.80983376       8.88961210       6.34972293        0
P        1.26994459       8.88961210       8.88961210        1
P        3.80983376       6.34972293       8.88961210        2
P        1.26994459       6.34972293       6.34972293        3
H        2.53988917       5.07977834       7.12173427        4
H        0.00000000       8.11760075       7.61966751        5
H        3.03782241       7.61966751       5.07977834        6
H        0.00000000       9.66162345       7.61966751        7
H        2.53988917       5.07977834       5.57771158        8
H        4.58184511       7.61966751       5.07977834        9
H        2.53988917       5.07977834       8.11760075       10
H        2.04195593       7.61966751       5.07977834       11
H        2.53988917       5.07977834       9.66162345       12
H        0.49793324       7.61966751       5.07977834       13
H        0.00000000       7.12173427       7.61966751       14
H        0.00000000       5.57771158       7.61966751       15
P        8.88961210       3.80983376       1.26994459        0
P        6.34972293       3.80983376       3.80983376        1
P        8.88961210       1.26994459       3.80983376        2
P        6.34972293       1.26994459       1.26994459        3
H        7.61966751       0.00000000       2.04195593        4
H        5.07977834       3.03782241       2.53988917        5
H        8.11760075       2.53988917       0.00000000        6
H        5.07977834       4.58184511       2.53988917        7
H        7.61966751       0.00000000       0.49793324        8
H        9.66162345       2.53988917       0.00000000        9
H        7.61966751       0.00000000       3.03782241       10
H        7.12173427       2.53988917       0.00000000       11
H        7.61966751       0.00000000       4.58184511       12
H        5.57771158       2.53988917       0.00000000       13
H        5.07977834       2.04195593       2.53988917       14
H        5.07977834       0.49793324       2.53988917       15
P        8.88961210       3.80983376       6.34972293        0
P        6.34972293       3.80983376       8.88961210        1
P        8.88961210       1.26994459       8.88961210        2
P        6.34972293       1.26994459       6.34972293        3
H        7.61966751       0.00000000       7.12173427        4
H        5.07977834       3.03782241       7.61966751        5
H        8.11760075       2.53988917       5.07977834        6
H        5.07977834       4.58184511       7.61966751        7
H        7.61966751       0.00000000       5.57771158        8
H        9.66162345       2.53988917       5.07977834        9
H        7.61966751       0.00000000       8.11760075       10
H        7.12173427       2.53988917       5.07977834       11
H        7.61966751       0.00000000       9.66162345       12
H        5.57771158       2.53988917       5.07977834       13
H        5.07977834       2.04195593       7.61966751       14
H        5.07977834       0.49793324       7.61966751       15
P        8.88961210       8.88961210       1.26994459        0
P        6.34972293       8.88961210       3.80983376        1
P        8.88961210       6.34972293       3.80983376        2
P        6.34972293       6.34972293       1.26994459        3
H        7.61966751       5.07977834       2.04195593        4
H        5.07977834       8.11760075       2.53988917        5
H        8.11760075       7.61966751       0.00000000        6
H        5.07977834       9.66162345       2.53988917        7
H        7.61966751       5.07977834       0.49793324        8
H        9.66162345       7.61966751       0.00000000        9
H        7.61966751       5.07977834       3.03782241       10
H        7.12173427       7.61966751       0.00000000       11
H        7.61966751       5.07977834       4.58184511       12
H        5.57771158       7.61966751       0.00000000       13
H        5.07977834       7.12173427       2.53988917       14
H        5.07977834       5.57771158       2.53988917       15
P        8.88961210       8.88961210       6.34972293        0
P        6.34972293       8.88961210       8.88961210        1
P        8.88961210       6.34972293       8.88961210        2
P        6.34972293       6.34972293       6.34972293        3
H        7.61966751       5.07977834       7.12173427        4
H        5.07977834       8.11760075       7.61966751        5
H        8.11760075       7.61966751       5.07977834        6
H        5.07977834       9.66162345       7.61966751        7
H        7.61966751       5.07977834       5.57771158        8
H        9.66162345       7.61966751       5.07977834        9
H        7.61966751       5.07977834       8.11760075       10
H        7.12173427       7.61966751       5.07977834       11
H        7.61966751       5.07977834       9.66162345       12
H        5.57771158       7.61966751       5.07977834       13
H        5.07977834       7.12173427       7.61966751       14
H        5.07977834       5.57771158       7.61966751       15
