272
Lattice="15.8138483212786 0.0 0.0 0.0 21.329831325568 0.0 0.0 0.0 10.9042513909382" Properties=species:S:1:pos:R:3:spacegroup_kinds:I:1 pbc="T T T"
Li       3.04562970       6.62691411       2.95421101        0
Li       6.99909179       9.37045938       2.49791469        1
Li       4.86129446       4.03800155       2.95421101        2
Li       0.90783238       1.29445628       2.49791469        3
V        2.39406266       4.81668894       5.30065459        4
V        6.34752474       0.51576889       0.15147111        5
V        5.51286150       5.84822673       5.30065459        6
V        1.55939942      10.14914677       0.15147111        7
P        0.42470633       7.33015019       4.46239718        8
P        4.37816841       8.66722330       0.98972851        9
P        7.48221783       3.33476547       4.46239718       10
P        3.52875575       1.99769236       0.98972851       11
O        1.43926441       0.07050399       4.12491860       12
O        5.39272649       5.26195385       1.32720710       13
O        6.46765975      10.59441168       4.12491860       14
O        2.51419767       5.40296182       1.32720710       15
O        1.64784443       6.36044979       4.27534967       16
O        5.60130651       9.63692370       1.17677603       17
O        6.25907973       4.30446587       4.27534967       18
O        2.30561765       1.02799196       1.17677603       19
O        7.87844057       7.90632328       3.15385241       20
O        3.92497849       8.09105022       2.29827329       21
O        0.02848359       2.75859239       3.15385241       22
O        3.98194567       2.57386545       2.29827329       23
O        0.87703568       8.43562675       0.04250312       24
O        4.83049776       7.56174674       5.40962258       25
O        7.02988848       2.22928891       0.04250312       26
O        3.07642640       3.10316892       5.40962258       27
O        7.22316079       6.54008268       5.24237987       28
O        3.26969871       9.45729082       0.20974583       29
O        0.68376337       4.12483299       5.24237987       30
O        4.63722545       1.20762484       0.20974583       31
O        3.95346208       5.33245783       4.38962238       32
O        0.00000000       0.00000000       1.06250332       33
Li       3.04562970       6.62691411       8.40633671        0
Li       6.99909179       9.37045938       7.95004039        1
Li       4.86129446       4.03800155       8.40633671        2
Li       0.90783238       1.29445628       7.95004039        3
V        2.39406266       4.81668894      10.75278029        4
V        6.34752474       0.51576889       5.60359681        5
V        5.51286150       5.84822673      10.75278029        6
V        1.55939942      10.14914677       5.60359681        7
P        0.42470633       7.33015019       9.91452288        8
P        4.37816841       8.66722330       6.44185421        9
P        7.48221783       3.33476547       9.91452288       10
P        3.52875575       1.99769236       6.44185421       11
O        1.43926441       0.07050399       9.57704430       12
O        5.39272649       5.26195385       6.77933280       13
O        6.46765975      10.59441168       9.57704430       14
O        2.51419767       5.40296182       6.77933280       15
O        1.64784443       6.36044979       9.72747537       16
O        5.60130651       9.63692370       6.62890173       17
O        6.25907973       4.30446587       9.72747537       18
O        2.30561765       1.02799196       6.62890173       19
O        7.87844057       7.90632328       8.60597811       20
O        3.92497849       8.09105022       7.75039899       21
O        0.02848359       2.75859239       8.60597811       22
O        3.98194567       2.57386545       7.75039899       23
O        0.87703568       8.43562675       5.49462882       24
O        4.83049776       7.56174674      10.86174828       25
O        7.02988848       2.22928891       5.49462882       26
O        3.07642640       3.10316892      10.86174828       27
O        7.22316079       6.54008268      10.69450557       28
O        3.26969871       9.45729082       5.66187153       29
O        0.68376337       4.12483299      10.69450557       30
O        4.63722545       1.20762484       5.66187153       31
O        3.95346208       5.33245783       9.84174808       32
O        0.00000000       0.00000000       6.51462902       33
Li       3.04562970      17.29182977       2.95421101        0
Li       6.99909179      20.03537504       2.49791469        1
Li       4.86129446      14.70291721       2.95421101        2
Li       0.90783238      11.95937194       2.49791469        3
V        2.39406266      15.48160460       5.30065459        4
V        6.34752474      11.18068455       0.15147111        5
V        5.51286150      16.51314239       5.30065459        6
V        1.55939942      20.81406243       0.15147111        7
P        0.42470633      17.99506585       4.46239718        8
P        4.37816841      19.33213896       0.98972851        9
P        7.48221783      13.99968113       4.46239718       10
P        3.52875575      12.66260802       0.98972851       11
O        1.43926441      10.73541965       4.12491860       12
O        5.39272649      15.92686951       1.32720710       13
O        6.46765975      21.25932734       4.12491860       14
O        2.51419767      16.06787748       1.32720710       15
O        1.64784443      17.02536545       4.27534967       16
O        5.60130651      20.30183936       1.17677603       17
O        6.25907973      14.96938153       4.27534967       18
O        2.30561765      11.69290762       1.17677603       19
O        7.87844057      18.57123894       3.15385241       20
O        3.92497849      18.75596588       2.29827329       21
O        0.02848359      13.42350805       3.15385241       22
O        3.98194567      13.23878111       2.29827329       23
O        0.87703568      19.10054241       0.04250312       24
O        4.83049776      18.22666240       5.40962258       25
O        7.02988848      12.89420457       0.04250312       26
O        3.07642640      13.76808458       5.40962258       27
O        7.22316079      17.20499834       5.24237987       28
O        3.26969871      20.12220648       0.20974583       29
O        0.68376337      14.78974865       5.24237987       30
O        4.63722545      11.87254050       0.20974583       31
O        3.95346208      15.99737349       4.38962238       32
O        0.00000000      10.66491566       1.06250332       33
Li       3.04562970      17.29182977       8.40633671        0
Li       6.99909179      20.03537504       7.95004039        1
Li       4.86129446      14.70291721       8.40633671        2
Li       0.90783238      11.95937194       7.95004039        3
V        2.39406266      15.48160460      10.75278029        4
V        6.34752474      11.18068455       5.60359681        5
V        5.51286150      16.51314239      10.75278029        6
V        1.55939942      20.81406243       5.60359681        7
P        0.42470633      17.99506585       9.91452288        8
P        4.37816841      19.33213896       6.44185421        9
P        7.48221783      13.99968113       9.91452288       10
P        3.52875575      12.66260802       6.44185421       11
O        1.43926441      10.73541965       9.57704430       12
O        5.39272649      15.92686951       6.77933280       13
O        6.46765975      21.25932734       9.57704430       14
O        2.51419767      16.06787748       6.77933280       15
O        1.64784443      17.02536545       9.72747537       16
O        5.60130651      20.30183936       6.62890173       17
O        6.25907973      14.96938153       9.72747537       18
O        2.30561765      11.69290762       6.62890173       19
O        7.87844057      18.57123894       8.60597811       20
O        3.92497849      18.75596588       7.75039899       21
O        0.02848359      13.42350805       8.60597811       22
O        3.98194567      13.23878111       7.75039899       23
O        0.87703568      19.10054241       5.49462882       24
O        4.83049776      18.22666240      10.86174828       25
O        7.02988848      12.89420457       5.49462882       26
O        3.07642640      13.76808458      10.86174828       27
O        7.22316079      17.20499834      10.69450557       28
O        3.26969871      20.12220648       5.66187153       29
O        0.68376337      14.78974865      10.69450557       30
O        4.63722545      11.87254050       5.66187153       31
O        3.95346208      15.99737349       9.84174808       32
O        0.00000000      10.66491566       6.51462902       33
Li      10.95255386       6.62691411       2.95421101        0
Li      14.90601595       9.37045938       2.49791469        1
Li      12.76821862       4.03800155       2.95421101        2
Li       8.81475654       1.29445628       2.49791469        3
V       10.30098682       4.81668894       5.30065459        4
V       14.25444890       0.51576889       0.15147111        5
V       13.41978566       5.84822673       5.30065459        6
V        9.46632358      10.14914677       0.15147111        7
P        8.33163049       7.33015019       4.46239718        8
P       12.28509257       8.66722330       0.98972851        9
P       15.38914199       3.33476547       4.46239718       10
P       11.43567991       1.99769236       0.98972851       11
O        9.34618857       0.07050399       4.12491860       12
O       13.29965065       5.26195385       1.32720710       13
O       14.37458391      10.59441168       4.12491860       14
O       10.42112183       5.40296182       1.32720710       15
O        9.55476859       6.36044979       4.27534967       16
O       13.50823067       9.63692370       1.17677603       17
O       14.16600389       4.30446587       4.27534967       18
O       10.21254181       1.02799196       1.17677603       19
O       15.78536473       7.90632328       3.15385241       20
O       11.83190265       8.09105022       2.29827329       21
O        7.93540775       2.75859239       3.15385241       22
O       11.88886983       2.57386545       2.29827329       23
O        8.78395984       8.43562675       0.04250312       24
O       12.73742192       7.56174674       5.40962258       25
O       14.93681264       2.22928891       0.04250312       26
O       10.98335056       3.10316892       5.40962258       27
O       15.13008495       6.54008268       5.24237987       28
O       11.17662287       9.45729082       0.20974583       29
O        8.59068753       4.12483299       5.24237987       30
O       12.54414961       1.20762484       0.20974583       31
O       11.86038624       5.33245783       4.38962238       32
O        7.90692416       0.00000000       1.06250332       33
Li      10.95255386       6.62691411       8.40633671        0
Li      14.90601595       9.37045938       7.95004039        1
Li      12.76821862       4.03800155       8.40633671        2
Li       8.81475654       1.29445628       7.95004039        3
V       10.30098682       4.81668894      10.75278029        4
V       14.25444890       0.51576889       5.60359681        5
V       13.41978566       5.84822673      10.75278029        6
V        9.46632358      10.14914677       5.60359681        7
P        8.33163049       7.33015019       9.91452288        8
P       12.28509257       8.66722330       6.44185421        9
P       15.38914199       3.33476547       9.91452288       10
P       11.43567991       1.99769236       6.44185421       11
O        9.34618857       0.07050399       9.57704430       12
O       13.29965065       5.26195385       6.77933280       13
O       14.37458391      10.59441168       9.57704430       14
O       10.42112183       5.40296182       6.77933280       15
O        9.55476859       6.36044979       9.72747537       16
O       13.50823067       9.63692370       6.62890173       17
O       14.16600389       4.30446587       9.72747537       18
O       10.21254181       1.02799196       6.62890173       19
O       15.78536473       7.90632328       8.60597811       20
O       11.83190265       8.09105022       7.75039899       21
O        7.93540775       2.75859239       8.60597811       22
O       11.88886983       2.57386545       7.75039899       23
O        8.78395984       8.43562675       5.49462882       24
O       12.73742192       7.56174674      10.86174828       25
O       14.93681264       2.22928891       5.49462882       26
O       10.98335056       3.10316892      10.86174828       27
O       15.13008495       6.54008268      10.69450557       28
O       11.17662287       9.45729082       5.66187153       29
O        8.59068753       4.12483299      10.69450557       30
O       12.54414961       1.20762484       5.66187153       31
O       11.86038624       5.33245783       9.84174808       32
O        7.90692416       0.00000000       6.51462902       33
Li      10.95255386      17.29182977       2.95421101        0
Li      14.90601595      20.03537504       2.49791469        1
Li      12.76821862      14.70291721       2.95421101        2
Li       8.81475654      11.95937194       2.49791469        3
V       10.30098682      15.48160460       5.30065459        4
V       14.25444890      11.18068455       0.15147111        5
V       13.41978566      16.51314239       5.30065459        6
V        9.46632358      20.81406243       0.15147111        7
P        8.33163049      17.99506585       4.46239718        8
P       12.28509257      19.33213896       0.98972851        9
P       15.38914199      13.99968113       4.46239718       10
P       11.43567991      12.66260802       0.98972851       11
O        9.34618857      10.73541965       4.12491860       12
O       13.29965065      15.92686951       1.32720710       13
O       14.37458391      21.25932734       4.12491860       14
O       10.42112183      16.06787748       1.32720710       15
O        9.55476859      17.02536545       4.27534967       16
O       13.50823067      20.30183936       1.17677603       17
O       14.16600389      14.96938153       4.27534967       18
O       10.21254181      11.69290762       1.17677603       19
O       15.78536473      18.57123894       3.15385241       20
O       11.83190265      18.75596588       2.29827329       21
O        7.93540775      13.42350805       3.15385241       22
O       11.88886983      13.23878111       2.29827329       23
O        8.78395984      19.10054241       0.04250312       24
O       12.73742192      18.22666240       5.40962258       25
O       14.93681264      12.89420457       0.04250312       26
O       10.98335056      13.76808458       5.40962258       27
O       15.13008495      17.20499834       5.24237987       28
O       11.17662287      20.12220648       0.20974583       29
O        8.59068753      14.78974865       5.24237987       30
O       12.54414961      11.87254050       0.20974583       31
O       11.86038624      15.99737349       4.38962238       32
O        7.90692416      10.66491566       1.06250332       33
Li      10.95255386      17.29182977       8.40633671        0
Li      14.90601595      20.03537504       7.95004039        1
Li      12.76821862      14.70291721       8.40633671        2
Li       8.81475654      11.95937194       7.95004039        3
V       10.30098682      15.48160460      10.75278029        4
V       14.25444890      11.18068455       5.60359681        5
V       13.41978566      16.51314239      10.75278029        6
V        9.46632358      20.81406243       5.60359681        7
P        8.33163049      17.99506585       9.91452288        8
P       12.28509257      19.33213896       6.44185421        9
P       15.38914199      13.99968113       9.91452288       10
P       11.43567991      12.66260802       6.44185421       11
O        9.34618857      10.73541965       9.57704430       12
O       13.29965065      15.92686951       6.77933280       13
O       14.37458391      21.25932734       9.57704430       14
O       10.42112183      16.06787748       6.77933280       15
O        9.55476859      17.02536545       9.72747537       16
O       13.50823067      20.30183936       6.62890173       17
O       14.16600389      14.96938153       9.72747537       18
O       10.21254181      11.69290762       6.62890173       19
O       15.78536473      18.57123894       8.60597811       20
O       11.83190265      18.75596588       7.75039899       21
O        7.93540775      13.42350805       8.60597811       22
O       11.88886983      13.23878111       7.75039899       23
O        8.78395984      19.10054241       5.49462882       24
O       12.73742192      18.22666240      10.86174828       25
O       14.93681264      12.89420457       5.49462882       26
O       10.98335056      13.76808458      10.86174828       27
O       15.13008495      17.20499834      10.69450557       28
O       11.17662287      20.12220648       5.66187153       29
O        8.59068753      14.78974865      10.69450557       30
O       12.54414961      11.87254050       5.66187153       31
O       11.86038624      15.99737349       9.84174808       32
O        7.90692416      10.66491566       6.51462902       33
