224
Lattice="17.5711102303978 0.0 0.0 0.0 18.3668192105198 0.0 0.0 0.0 16.7300922752738" Properties=species:S:1:pos:R:3:spacegroup_kinds:I:1 pbc="T T T"
Li       1.87325578       1.30216757       7.96648977        0
Li       1.87325578       7.88124203       3.78396670        1
Li       6.26603334       5.89387237       4.58107944        2
Li       6.26603334       3.28953723       0.39855637        3
Li       6.91229934       1.30216757       4.58107944        4
Li       6.91229934       7.88124203       0.39855637        5
Li       2.51952178       5.89387237       7.96648977        6
Li       2.51952178       3.28953723       3.78396670        7
P        4.39277756       3.46278408       6.27378460        8
P        4.39277756       5.72062553       2.09126153        9
P        0.00000000       8.05448888       6.27378460       10
P        0.00000000       1.12892073       2.09126153       11
S        4.64780056       2.28801797       4.61161013       12
S        4.64780056       6.89539164       0.42908706       13
S        0.25502300       6.87972277       7.93595908       14
S        0.25502300       2.30368683       3.75343601       15
S        4.13775456       2.28801797       7.93595908       16
S        4.13775456       6.89539164       3.75343601       17
S        8.53053212       6.87972277       4.61161013       18
S        8.53053212       2.30368683       0.42908706       19
S        2.72884077       4.59428310       5.89482027       20
S        2.72884077       4.58912651       1.71229720       21
S        7.12161833       0.00257829       6.65274894       22
S        7.12161833       9.18083131       2.47022587       23
S        6.05671434       4.59428310       6.65274894       24
S        6.05671434       4.58912651       2.47022587       25
S        1.66393679       0.00257829       5.89482027       26
S        1.66393679       9.18083131       1.71229720       27
Li       1.87325578       1.30216757      16.33153591        0
Li       1.87325578       7.88124203      12.14901284        1
Li       6.26603334       5.89387237      12.94612558        2
Li       6.26603334       3.28953723       8.76360251        3
Li       6.91229934       1.30216757      12.94612558        4
Li       6.91229934       7.88124203       8.76360251        5
Li       2.51952178       5.89387237      16.33153591        6
Li       2.51952178       3.28953723      12.14901284        7
P        4.39277756       3.46278408      14.63883074        8
P        4.39277756       5.72062553      10.45630767        9
P        0.00000000       8.05448888      14.63883074       10
P        0.00000000       1.12892073      10.45630767       11
S        4.64780056       2.28801797      12.97665627       12
S        4.64780056       6.89539164       8.79413320       13
S        0.25502300       6.87972277      16.30100522       14
S        0.25502300       2.30368683      12.11848215       15
S        4.13775456       2.28801797      16.30100522       16
S        4.13775456       6.89539164      12.11848215       17
S        8.53053212       6.87972277      12.97665627       18
S        8.53053212       2.30368683       8.79413320       19
S        2.72884077       4.59428310      14.25986641       20
S        2.72884077       4.58912651      10.07734334       21
S        7.12161833       0.00257829      15.01779508       22
S        7.12161833       9.18083131      10.83527201       23
S        6.05671434       4.59428310      15.01779508       24
S        6.05671434       4.58912651      10.83527201       25
S        1.66393679       0.00257829      14.25986641       26
S        1.66393679       9.18083131      10.07734334       27
Li       1.87325578      10.48557718       7.96648977        0
Li       1.87325578      17.06465164       3.78396670        1
Li       6.26603334      15.07728198       4.58107944        2
Li       6.26603334      12.47294684       0.39855637        3
Li       6.91229934      10.48557718       4.58107944        4
Li       6.91229934      17.06465164       0.39855637        5
Li       2.51952178      15.07728198       7.96648977        6
Li       2.51952178      12.47294684       3.78396670        7
P        4.39277756      12.64619369       6.27378460        8
P        4.39277756      14.90403514       2.09126153        9
P        0.00000000      17.23789849       6.27378460       10
P        0.00000000      10.31233034       2.09126153       11
S        4.64780056      11.47142758       4.61161013       12
S        4.64780056      16.07880125       0.42908706       13
S        0.25502300      16.06313238       7.93595908       14
S        0.25502300      11.48709644       3.75343601       15
S        4.13775456      11.47142758       7.93595908       16
S        4.13775456      16.07880125       3.75343601       17
S        8.53053212      16.06313238       4.61161013       18
S        8.53053212      11.48709644       0.42908706       19
S        2.72884077      13.77769271       5.89482027       20
S        2.72884077      13.77253612       1.71229720       21
S        7.12161833       9.18598790       6.65274894       22
S        7.12161833      18.36424092       2.47022587       23
S        6.05671434      13.77769271       6.65274894       24
S        6.05671434      13.77253612       2.47022587       25
S        1.66393679       9.18598790       5.89482027       26
S        1.66393679      18.36424092       1.71229720       27
Li       1.87325578      10.48557718      16.33153591        0
Li       1.87325578      17.06465164      12.14901284        1
Li       6.26603334      15.07728198      12.94612558        2
Li       6.26603334      12.47294684       8.76360251        3
Li       6.91229934      10.48557718      12.94612558        4
Li       6.91229934      17.06465164       8.76360251        5
Li       2.51952178      15.07728198      16.33153591        6
Li       2.51952178      12.47294684      12.14901284        7
P        4.39277756      12.64619369      14.63883074        8
P        4.39277756      14.90403514      10.45630767        9
P        0.00000000      17.23789849      14.63883074       10
P        0.00000000      10.31233034      10.45630767       11
S        4.64780056      11.47142758      12.97665627       12
S        4.64780056      16.07880125       8.79413320       13
S        0.25502300      16.06313238      16.30100522       14
S        0.25502300      11.48709644      12.11848215       15
S        4.13775456      11.47142758      16.30100522       16
S        4.13775456      16.07880125      12.11848215       17
S        8.53053212      16.06313238      12.97665627       18
S        8.53053212      11.48709644       8.79413320       19
S        2.72884077      13.77769271      14.25986641       20
S        2.72884077      13.77253612      10.07734334       21
S        7.12161833       9.18598790      15.01779508       22
S        7.12161833      18.36424092      10.83527201       23
S        6.05671434      13.77769271      15.01779508       24
S        6.05671434      13.77253612      10.83527201       25
S        1.66393679       9.18598790      14.25986641       26
S        1.66393679      18.36424092      10.07734334       27
Li      10.65881090       1.30216757       7.96648977        0
Li      10.65881090       7.88124203       3.78396670        1
Li      15.05158846       5.89387237       4.58107944        2
Li      15.05158846       3.28953723       0.39855637        3
Li      15.69785446       1.30216757       4.58107944        4
Li      15.69785446       7.88124203       0.39855637        5
Li      11.30507690       5.89387237       7.96648977        6
Li      11.30507690       3.28953723       3.78396670        7
P       13.17833268       3.46278408       6.27378460        8
P       13.17833268       5.72062553       2.09126153        9
P        8.78555512       8.05448888       6.27378460       10
P        8.78555512       1.12892073       2.09126153       11
S       13.43335568       2.28801797       4.61161013       12
S       13.43335568       6.89539164       0.42908706       13
S        9.04057812       6.87972277       7.93595908       14
S        9.04057812       2.30368683       3.75343601       15
S       12.92330968       2.28801797       7.93595908       16
S       12.92330968       6.89539164       3.75343601       17
S       17.31608724       6.87972277       4.61161013       18
S       17.31608724       2.30368683       0.42908706       19
S       11.51439589       4.59428310       5.89482027       20
S       11.51439589       4.58912651       1.71229720       21
S       15.90717345       0.00257829       6.65274894       22
S       15.90717345       9.18083131       2.47022587       23
S       14.84226946       4.59428310       6.65274894       24
S       14.84226946       4.58912651       2.47022587       25
S       10.44949191       0.00257829       5.89482027       26
S       10.44949191       9.18083131       1.71229720       27
Li      10.65881090       1.30216757      16.33153591        0
Li      10.65881090       7.88124203      12.14901284        1
Li      15.05158846       5.89387237      12.94612558        2
Li      15.05158846       3.28953723       8.76360251        3
Li      15.69785446       1.30216757      12.94612558        4
Li      15.69785446       7.88124203       8.76360251        5
Li      11.30507690       5.89387237      16.33153591        6
Li      11.30507690       3.28953723      12.14901284        7
P       13.17833268       3.46278408      14.63883074        8
P       13.17833268       5.72062553      10.45630767        9
P        8.78555512       8.05448888      14.63883074       10
P        8.78555512       1.12892073      10.45630767       11
S       13.43335568       2.28801797      12.97665627       12
S       13.43335568       6.89539164       8.79413320       13
S        9.04057812       6.87972277      16.30100522       14
S        9.04057812       2.30368683      12.11848215       15
S       12.92330968       2.28801797      16.30100522       16
S       12.92330968       6.89539164      12.11848215       17
S       17.31608724       6.87972277      12.97665627       18
S       17.31608724       2.30368683       8.79413320       19
S       11.51439589       4.59428310      14.25986641       20
S       11.51439589       4.58912651      10.07734334       21
S       15.90717345       0.00257829      15.01779508       22
S       15.90717345       9.18083131      10.83527201       23
S       14.84226946       4.59428310      15.01779508       24
S       14.84226946       4.58912651      10.83527201       25
S       10.44949191       0.00257829      14.25986641       26
S       10.44949191       9.18083131      10.07734334       27
Li      10.65881090      10.48557718       7.96648977        0
Li      10.65881090      17.06465164       3.78396670        1
Li      15.05158846      15.07728198       4.58107944        2
Li      15.05158846      12.47294684       0.39855637        3
Li      15.69785446      10.48557718       4.58107944        4
Li      15.69785446      17.06465164       0.39855637        5
Li      11.30507690      15.07728198       7.96648977        6
Li      11.30507690      12.47294684       3.78396670        7
P       13.17833268      12.64619369       6.27378460        8
P       13.17833268      14.90403514       2.09126153        9
P        8.78555512      17.23789849       6.27378460       10
P        8.78555512      10.31233034       2.09126153       11
S       13.43335568      11.47142758       4.61161013       12
S       13.43335568      16.07880125       0.42908706       13
S        9.04057812      16.06313238       7.93595908       14
S        9.04057812      11.48709644       3.75343601       15
S       12.92330968      11.47142758       7.93595908       16
S       12.92330968      16.07880125       3.75343601       17
S       17.31608724      16.06313238       4.61161013       18
S       17.31608724      11.48709644       0.42908706       19
S       11.51439589      13.77769271       5.89482027       20
S       11.51439589      13.77253612       1.71229720       21
S       15.90717345       9.18598790       6.65274894       22
S       15.90717345      18.36424092       2.47022587       23
S       14.84226946      13.77769271       6.65274894       24
S       14.84226946      13.77253612       2.47022587       25
S       10.44949191       9.18598790       5.89482027       26
S       10.44949191      18.36424092       1.71229720       27
Li      10.65881090      10.48557718      16.33153591        0
Li      10.65881090      17.06465164      12.14901284        1
Li      15.05158846      15.07728198      12.94612558        2
Li      15.05158846      12.47294684       8.76360251        3
Li      15.69785446      10.48557718      12.94612558        4
Li      15.69785446      17.06465164       8.76360251        5
Li      11.30507690      15.07728198      16.33153591        6
Li      11.30507690      12.47294684      12.14901284        7
P       13.17833268      12.64619369      14.63883074        8
P       13.17833268      14.90403514      10.45630767        9
P        8.78555512      17.23789849      14.63883074       10
P        8.78555512      10.31233034      10.45630767       11
S       13.43335568      11.47142758      12.97665627       12
S       13.43335568      16.07880125       8.79413320       13
S        9.04057812      16.06313238      16.30100522       14
S        9.04057812      11.48709644      12.11848215       15
S       12.92330968      11.47142758      16.30100522       16
S       12.92330968      16.07880125      12.11848215       17
S       17.31608724      16.06313238      12.97665627       18
S       17.31608724      11.48709644       8.79413320       19
S       11.51439589      13.77769271      14.25986641       20
S       11.51439589      13.77253612      10.07734334       21
S       15.90717345       9.18598790      15.01779508       22
S       15.90717345      18.36424092      10.83527201       23
S       14.84226946      13.77769271      15.01779508       24
S       14.84226946      13.77253612      10.83527201       25
S       10.44949191       9.18598790      14.25986641       26
S       10.44949191      18.36424092      10.07734334       27
