288
Lattice="16.0898385936 0.0 0.0 0.0 29.8024670308 0.0 0.0 0.0 8.921272704" Properties=species:S:1:pos:R:3:spacegroup_kinds:I:1 pbc="T T T"
Li       2.62752655       7.26197932       2.23031818        0
Li       6.64998620       0.18863743       2.23031818        1
Li       5.41739275       7.63925419       2.23031818        2
Li       1.39493310      14.71259608       2.23031818        3
Li       2.38722936      12.41523788       2.23031818        4
Li       6.40968901       9.93661239       2.23031818        5
Li       5.65768994       2.48599563       2.23031818        6
Li       1.63523029       4.96462113       2.23031818        7
Li       0.93665203      10.27373087       2.23031818        8
Li       4.95911168      12.07811940       2.23031818        9
Li       7.10826726       4.62750265       2.23031818       10
Li       3.08580762       2.82311411       2.23031818       11
Li       3.33464699      11.28482587       0.00000000       12
Li       7.35710664      11.06702440       0.00000000       13
Li       4.71027231       3.61640764       0.00000000       14
Li       0.68781266       3.83420911       0.00000000       15
Li       1.87999738       8.97426670       0.00000000       16
Li       5.90245703      13.37758357       0.00000000       17
Li       6.16492191       5.92696682       0.00000000       18
Li       2.14246226       1.52364994       0.00000000       19
Li       0.97648937      12.75760984       0.00000000       20
Li       4.99894902       9.59424043       0.00000000       21
Li       7.06842992       2.14362367       0.00000000       22
Li       3.04597027       5.30699309       0.00000000       23
Li       4.02245965       0.00000000       2.23031818       24
Li       0.00000000       7.45061676       2.23031818       25
Li       4.02245965       7.45061676       0.00000000       26
Li       0.00000000       0.00000000       0.00000000       27
Si       3.56264611       9.73917698       2.23031818       28
Si       7.58510576      12.61267330       2.23031818       29
Si       4.48227319       5.16205654       2.23031818       30
Si       0.45981354       2.28856022       2.23031818       31
Si       3.21156364      13.94851419       0.00000000       32
Si       7.23402329       8.40333609       0.00000000       33
Si       4.83335566       0.95271933       0.00000000       34
Si       0.81089601       6.49789743       0.00000000       35
Li       2.62752655       7.26197932       6.69095453        0
Li       6.64998620       0.18863743       6.69095453        1
Li       5.41739275       7.63925419       6.69095453        2
Li       1.39493310      14.71259608       6.69095453        3
Li       2.38722936      12.41523788       6.69095453        4
Li       6.40968901       9.93661239       6.69095453        5
Li       5.65768994       2.48599563       6.69095453        6
Li       1.63523029       4.96462113       6.69095453        7
Li       0.93665203      10.27373087       6.69095453        8
Li       4.95911168      12.07811940       6.69095453        9
Li       7.10826726       4.62750265       6.69095453       10
Li       3.08580762       2.82311411       6.69095453       11
Li       3.33464699      11.28482587       4.46063635       12
Li       7.35710664      11.06702440       4.46063635       13
Li       4.71027231       3.61640764       4.46063635       14
Li       0.68781266       3.83420911       4.46063635       15
Li       1.87999738       8.97426670       4.46063635       16
Li       5.90245703      13.37758357       4.46063635       17
Li       6.16492191       5.92696682       4.46063635       18
Li       2.14246226       1.52364994       4.46063635       19
Li       0.97648937      12.75760984       4.46063635       20
Li       4.99894902       9.59424043       4.46063635       21
Li       7.06842992       2.14362367       4.46063635       22
Li       3.04597027       5.30699309       4.46063635       23
Li       4.02245965       0.00000000       6.69095453       24
Li       0.00000000       7.45061676       6.69095453       25
Li       4.02245965       7.45061676       4.46063635       26
Li       0.00000000       0.00000000       4.46063635       27
Si       3.56264611       9.73917698       6.69095453       28
Si       7.58510576      12.61267330       6.69095453       29
Si       4.48227319       5.16205654       6.69095453       30
Si       0.45981354       2.28856022       6.69095453       31
Si       3.21156364      13.94851419       4.46063635       32
Si       7.23402329       8.40333609       4.46063635       33
Si       4.83335566       0.95271933       4.46063635       34
Si       0.81089601       6.49789743       4.46063635       35
Li       2.62752655      22.16321284       2.23031818        0
Li       6.64998620      15.08987095       2.23031818        1
Li       5.41739275      22.54048771       2.23031818        2
Li       1.39493310      29.61382960       2.23031818        3
Li       2.38722936      27.31647140       2.23031818        4
Li       6.40968901      24.83784591       2.23031818        5
Li       5.65768994      17.38722915       2.23031818        6
Li       1.63523029      19.86585465       2.23031818        7
Li       0.93665203      25.17496439       2.23031818        8
Li       4.95911168      26.97935292       2.23031818        9
Li       7.10826726      19.52873617       2.23031818       10
Li       3.08580762      17.72434763       2.23031818       11
Li       3.33464699      26.18605939       0.00000000       12
Li       7.35710664      25.96825792       0.00000000       13
Li       4.71027231      18.51764116       0.00000000       14
Li       0.68781266      18.73544263       0.00000000       15
Li       1.87999738      23.87550022       0.00000000       16
Li       5.90245703      28.27881709       0.00000000       17
Li       6.16492191      20.82820034       0.00000000       18
Li       2.14246226      16.42488346       0.00000000       19
Li       0.97648937      27.65884336       0.00000000       20
Li       4.99894902      24.49547395       0.00000000       21
Li       7.06842992      17.04485719       0.00000000       22
Li       3.04597027      20.20822661       0.00000000       23
Li       4.02245965      14.90123352       2.23031818       24
Li       0.00000000      22.35185028       2.23031818       25
Li       4.02245965      22.35185028       0.00000000       26
Li       0.00000000      14.90123352       0.00000000       27
Si       3.56264611      24.64041050       2.23031818       28
Si       7.58510576      27.51390682       2.23031818       29
Si       4.48227319      20.06329006       2.23031818       30
Si       0.45981354      17.18979374       2.23031818       31
Si       3.21156364      28.84974771       0.00000000       32
Si       7.23402329      23.30456961       0.00000000       33
Si       4.83335566      15.85395285       0.00000000       34
Si       0.81089601      21.39913095       0.00000000       35
Li       2.62752655      22.16321284       6.69095453        0
Li       6.64998620      15.08987095       6.69095453        1
Li       5.41739275      22.54048771       6.69095453        2
Li       1.39493310      29.61382960       6.69095453        3
Li       2.38722936      27.31647140       6.69095453        4
Li       6.40968901      24.83784591       6.69095453        5
Li       5.65768994      17.38722915       6.69095453        6
Li       1.63523029      19.86585465       6.69095453        7
Li       0.93665203      25.17496439       6.69095453        8
Li       4.95911168      26.97935292       6.69095453        9
Li       7.10826726      19.52873617       6.69095453       10
Li       3.08580762      17.72434763       6.69095453       11
Li       3.33464699      26.18605939       4.46063635       12
Li       7.35710664      25.96825792       4.46063635       13
Li       4.71027231      18.51764116       4.46063635       14
Li       0.68781266      18.73544263       4.46063635       15
Li       1.87999738      23.87550022       4.46063635       16
Li       5.90245703      28.27881709       4.46063635       17
Li       6.16492191      20.82820034       4.46063635       18
Li       2.14246226      16.42488346       4.46063635       19
Li       0.97648937      27.65884336       4.46063635       20
Li       4.99894902      24.49547395       4.46063635       21
Li       7.06842992      17.04485719       4.46063635       22
Li       3.04597027      20.20822661       4.46063635       23
Li       4.02245965      14.90123352       6.69095453       24
Li       0.00000000      22.35185028       6.69095453       25
Li       4.02245965      22.35185028       4.46063635       26
Li       0.00000000      14.90123352       4.46063635       27
Si       3.56264611      24.64041050       6.69095453       28
Si       7.58510576      27.51390682       6.69095453       29
Si       4.48227319      20.06329006       6.69095453       30
Si       0.45981354      17.18979374       6.69095453       31
Si       3.21156364      28.84974771       4.46063635       32
Si       7.23402329      23.30456961       4.46063635       33
Si       4.83335566      15.85395285       4.46063635       34
Si       0.81089601      21.39913095       4.46063635       35
Li      10.67244585       7.26197932       2.23031818        0
Li      14.69490550       0.18863743       2.23031818        1
Li      13.46231205       7.63925419       2.23031818        2
Li       9.43985240      14.71259608       2.23031818        3
Li      10.43214866      12.41523788       2.23031818        4
Li      14.45460831       9.93661239       2.23031818        5
Li      13.70260924       2.48599563       2.23031818        6
Li       9.68014959       4.96462113       2.23031818        7
Li       8.98157133      10.27373087       2.23031818        8
Li      13.00403098      12.07811940       2.23031818        9
Li      15.15318656       4.62750265       2.23031818       10
Li      11.13072692       2.82311411       2.23031818       11
Li      11.37956629      11.28482587       0.00000000       12
Li      15.40202594      11.06702440       0.00000000       13
Li      12.75519161       3.61640764       0.00000000       14
Li       8.73273196       3.83420911       0.00000000       15
Li       9.92491668       8.97426670       0.00000000       16
Li      13.94737633      13.37758357       0.00000000       17
Li      14.20984121       5.92696682       0.00000000       18
Li      10.18738156       1.52364994       0.00000000       19
Li       9.02140867      12.75760984       0.00000000       20
Li      13.04386832       9.59424043       0.00000000       21
Li      15.11334922       2.14362367       0.00000000       22
Li      11.09088957       5.30699309       0.00000000       23
Li      12.06737895       0.00000000       2.23031818       24
Li       8.04491930       7.45061676       2.23031818       25
Li      12.06737895       7.45061676       0.00000000       26
Li       8.04491930       0.00000000       0.00000000       27
Si      11.60756541       9.73917698       2.23031818       28
Si      15.63002506      12.61267330       2.23031818       29
Si      12.52719249       5.16205654       2.23031818       30
Si       8.50473284       2.28856022       2.23031818       31
Si      11.25648294      13.94851419       0.00000000       32
Si      15.27894259       8.40333609       0.00000000       33
Si      12.87827496       0.95271933       0.00000000       34
Si       8.85581531       6.49789743       0.00000000       35
Li      10.67244585       7.26197932       6.69095453        0
Li      14.69490550       0.18863743       6.69095453        1
Li      13.46231205       7.63925419       6.69095453        2
Li       9.43985240      14.71259608       6.69095453        3
Li      10.43214866      12.41523788       6.69095453        4
Li      14.45460831       9.93661239       6.69095453        5
Li      13.70260924       2.48599563       6.69095453        6
Li       9.68014959       4.96462113       6.69095453        7
Li       8.98157133      10.27373087       6.69095453        8
Li      13.00403098      12.07811940       6.69095453        9
Li      15.15318656       4.62750265       6.69095453       10
Li      11.13072692       2.82311411       6.69095453       11
Li      11.37956629      11.28482587       4.46063635       12
Li      15.40202594      11.06702440       4.46063635       13
Li      12.75519161       3.61640764       4.46063635       14
Li       8.73273196       3.83420911       4.46063635       15
Li       9.92491668       8.97426670       4.46063635       16
Li      13.94737633      13.37758357       4.46063635       17
Li      14.20984121       5.92696682       4.46063635       18
Li      10.18738156       1.52364994       4.46063635       19
Li       9.02140867      12.75760984       4.46063635       20
Li      13.04386832       9.59424043       4.46063635       21
Li      15.11334922       2.14362367       4.46063635       22
Li      11.09088957       5.30699309       4.46063635       23
Li      12.06737895       0.00000000       6.69095453       24
Li       8.04491930       7.45061676       6.69095453       25
Li      12.06737895       7.45061676       4.46063635       26
Li       8.04491930       0.00000000       4.46063635       27
Si      11.60756541       9.73917698       6.69095453       28
Si      15.63002506      12.61267330       6.69095453       29
Si      12.52719249       5.16205654       6.69095453       30
Si       8.50473284       2.28856022       6.69095453       31
Si      11.25648294      13.94851419       4.46063635       32
Si      15.27894259       8.40333609       4.46063635       33
Si      12.87827496       0.95271933       4.46063635       34
Si       8.85581531       6.49789743       4.46063635       35
Li      10.67244585      22.16321284       2.23031818        0
Li      14.69490550      15.08987095       2.23031818        1
Li      13.46231205      22.54048771       2.23031818        2
Li       9.43985240      29.61382960       2.23031818        3
Li      10.43214866      27.31647140       2.23031818        4
Li      14.45460831      24.83784591       2.23031818        5
Li      13.70260924      17.38722915       2.23031818        6
Li       9.68014959      19.86585465       2.23031818        7
Li       8.98157133      25.17496439       2.23031818        8
Li      13.00403098      26.97935292       2.23031818        9
Li      15.15318656      19.52873617       2.23031818       10
Li      11.13072692      17.72434763       2.23031818       11
Li      11.37956629      26.18605939       0.00000000       12
Li      15.40202594      25.96825792       0.00000000       13
Li      12.75519161      18.51764116       0.00000000       14
Li       8.73273196      18.73544263       0.00000000       15
Li       9.92491668      23.87550022       0.00000000       16
Li      13.94737633      28.27881709       0.00000000       17
Li      14.20984121      20.82820034       0.00000000       18
Li      10.18738156      16.42488346       0.00000000       19
Li       9.02140867      27.65884336       0.00000000       20
Li      13.04386832      24.49547395       0.00000000       21
Li      15.11334922      17.04485719       0.00000000       22
Li      11.09088957      20.20822661       0.00000000       23
Li      12.06737895      14.90123352       2.23031818       24
Li       8.04491930      22.35185028       2.23031818       25
Li      12.06737895      22.35185028       0.00000000       26
Li       8.04491930      14.90123352       0.00000000       27
Si      11.60756541      24.64041050       2.23031818       28
Si      15.63002506      27.51390682       2.23031818       29
Si      12.52719249      20.06329006       2.23031818       30
Si       8.50473284      17.18979374       2.23031818       31
Si      11.25648294      28.84974771       0.00000000       32
Si      15.27894259      23.30456961       0.00000000       33
Si      12.87827496      15.85395285       0.00000000       34
Si       8.85581531      21.39913095       0.00000000       35
Li      10.67244585      22.16321284       6.69095453        0
Li      14.69490550      15.08987095       6.69095453        1
Li      13.46231205      22.54048771       6.69095453        2
Li       9.43985240      29.61382960       6.69095453        3
Li      10.43214866      27.31647140       6.69095453        4
Li      14.45460831      24.83784591       6.69095453        5
Li      13.70260924      17.38722915       6.69095453        6
Li       9.68014959      19.86585465       6.69095453        7
Li       8.98157133      25.17496439       6.69095453        8
Li      13.00403098      26.97935292       6.69095453        9
Li      15.15318656      19.52873617       6.69095453       10
Li      11.13072692      17.72434763       6.69095453       11
Li      11.37956629      26.18605939       4.46063635       12
Li      15.40202594      25.96825792       4.46063635       13
Li      12.75519161      18.51764116       4.46063635       14
Li       8.73273196      18.73544263       4.46063635       15
Li       9.92491668      23.87550022       4.46063635       16
Li      13.94737633      28.27881709       4.46063635       17
Li      14.20984121      20.82820034       4.46063635       18
Li      10.18738156      16.42488346       4.46063635       19
Li       9.02140867      27.65884336       4.46063635       20
Li      13.04386832      24.49547395       4.46063635       21
Li      15.11334922      17.04485719       4.46063635       22
Li      11.09088957      20.20822661       4.46063635       23
Li      12.06737895      14.90123352       6.69095453       24
Li       8.04491930      22.35185028       6.69095453       25
Li      12.06737895      22.35185028       4.46063635       26
Li       8.04491930      14.90123352       4.46063635       27
Si      11.60756541      24.64041050       6.69095453       28
Si      15.63002506      27.51390682       6.69095453       29
Si      12.52719249      20.06329006       6.69095453       30
Si       8.50473284      17.18979374       6.69095453       31
Si      11.25648294      28.84974771       4.46063635       32
Si      15.27894259      23.30456961       4.46063635       33
Si      12.87827496      15.85395285       4.46063635       34
Si       8.85581531      21.39913095       4.46063635       35
