128
Lattice="19.7847780632558 0.0 0.0 0.0 5.714689671021 0.0 0.0 0.0 10.2286587007188" Properties=species:S:1:pos:R:3:spacegroup_kinds:I:1 pbc="T T T"
Li       3.92090283       2.14300863       2.94438486        0
Li       8.86709734       2.14300863       4.72710916        1
Li       5.97148620       0.71433621       2.16994449        2
Li       1.02529169       0.71433621       0.38722019        3
Ti       1.27894283       2.14300863       2.91136160        4
Ti       6.22513735       2.14300863       4.76013243        5
Ti       8.61344620       0.71433621       2.20296775        6
Ti       3.66725169       0.71433621       0.35419692        7
O        2.51379285       2.14300863       4.52068438        8
O        7.45998737       2.14300863       3.15080965        9
O        7.37859618       0.71433621       0.59364497       10
O        2.43240167       0.71433621       1.96351970       11
O        4.89939895       2.14300863       1.22702843       12
O        9.84559346       2.14300863       1.33013625       13
O        4.99299009       0.71433621       3.88730092       14
O        0.04679557       0.71433621       3.78419310       15
Li       3.92090283       2.14300863       8.05871421        0
Li       8.86709734       2.14300863       9.84143851        1
Li       5.97148620       0.71433621       7.28427384        2
Li       1.02529169       0.71433621       5.50154954        3
Ti       1.27894283       2.14300863       8.02569095        4
Ti       6.22513735       2.14300863       9.87446178        5
Ti       8.61344620       0.71433621       7.31729710        6
Ti       3.66725169       0.71433621       5.46852627        7
O        2.51379285       2.14300863       9.63501373        8
O        7.45998737       2.14300863       8.26513900        9
O        7.37859618       0.71433621       5.70797432       10
O        2.43240167       0.71433621       7.07784905       11
O        4.89939895       2.14300863       6.34135778       12
O        9.84559346       2.14300863       6.44446560       13
O        4.99299009       0.71433621       9.00163027       14
O        0.04679557       0.71433621       8.89852245       15
Li       3.92090283       5.00035347       2.94438486        0
Li       8.86709734       5.00035347       4.72710916        1
Li       5.97148620       3.57168105       2.16994449        2
Li       1.02529169       3.57168105       0.38722019        3
Ti       1.27894283       5.00035347       2.91136160        4
Ti       6.22513735       5.00035347       4.76013243        5
Ti       8.61344620       3.57168105       2.20296775        6
Ti       3.66725169       3.57168105       0.35419692        7
O        2.51379285       5.00035347       4.52068438        8
O        7.45998737       5.00035347       3.15080965        9
O        7.37859618       3.57168105       0.59364497       10
O        2.43240167       3.57168105       1.96351970       11
O        4.89939895       5.00035347       1.22702843       12
O        9.84559346       5.00035347       1.33013625       13
O        4.99299009       3.57168105       3.88730092       14
O        0.04679557       3.57168105       3.78419310       15
Li       3.92090283       5.00035347       8.05871421        0
Li       8.86709734       5.00035347       9.84143851        1
Li       5.97148620       3.57168105       7.28427384        2
Li       1.02529169       3.57168105       5.50154954        3
Ti       1.27894283       5.00035347       8.02569095        4
Ti       6.22513735       5.00035347       9.87446178        5
Ti       8.61344620       3.57168105       7.31729710        6
Ti       3.66725169       3.57168105       5.46852627        7
O        2.51379285       5.00035347       9.63501373        8
O        7.45998737       5.00035347       8.26513900        9
O        7.37859618       3.57168105       5.70797432       10
O        2.43240167       3.57168105       7.07784905       11
O        4.89939895       5.00035347       6.34135778       12
O        9.84559346       5.00035347       6.44446560       13
O        4.99299009       3.57168105       9.00163027       14
O        0.04679557       3.57168105       8.89852245       15
Li      13.81329186       2.14300863       2.94438486        0
Li      18.75948637       2.14300863       4.72710916        1
Li      15.86387523       0.71433621       2.16994449        2
Li      10.91768072       0.71433621       0.38722019        3
Ti      11.17133186       2.14300863       2.91136160        4
Ti      16.11752638       2.14300863       4.76013243        5
Ti      18.50583523       0.71433621       2.20296775        6
Ti      13.55964072       0.71433621       0.35419692        7
O       12.40618188       2.14300863       4.52068438        8
O       17.35237640       2.14300863       3.15080965        9
O       17.27098521       0.71433621       0.59364497       10
O       12.32479070       0.71433621       1.96351970       11
O       14.79178798       2.14300863       1.22702843       12
O       19.73798249       2.14300863       1.33013625       13
O       14.88537912       0.71433621       3.88730092       14
O        9.93918460       0.71433621       3.78419310       15
Li      13.81329186       2.14300863       8.05871421        0
Li      18.75948637       2.14300863       9.84143851        1
Li      15.86387523       0.71433621       7.28427384        2
Li      10.91768072       0.71433621       5.50154954        3
Ti      11.17133186       2.14300863       8.02569095        4
Ti      16.11752638       2.14300863       9.87446178        5
Ti      18.50583523       0.71433621       7.31729710        6
Ti      13.55964072       0.71433621       5.46852627        7
O       12.40618188       2.14300863       9.63501373        8
O       17.35237640       2.14300863       8.26513900        9
O       17.27098521       0.71433621       5.70797432       10
O       12.32479070       0.71433621       7.07784905       11
O       14.79178798       2.14300863       6.34135778       12
O       19.73798249       2.14300863       6.44446560       13
O       14.88537912       0.71433621       9.00163027       14
O        9.93918460       0.71433621       8.89852245       15
Li      13.81329186       5.00035347       2.94438486        0
Li      18.75948637       5.00035347       4.72710916        1
Li      15.86387523       3.57168105       2.16994449        2
Li      10.91768072       3.57168105       0.38722019        3
Ti      11.17133186       5.00035347       2.91136160        4
Ti      16.11752638       5.00035347       4.76013243        5
Ti      18.50583523       3.57168105       2.20296775        6
Ti      13.55964072       3.57168105       0.35419692        7
O       12.40618188       5.00035347       4.52068438        8
O       17.35237640       5.00035347       3.15080965        9
O       17.27098521       3.57168105       0.59364497       10
O       12.32479070       3.57168105       1.96351970       11
O       14.79178798       5.00035347       1.22702843       12
O       19.73798249       5.00035347       1.33013625       13
O       14.88537912       3.57168105       3.88730092       14
O        9.93918460       3.57168105       3.78419310       15
Li      13.81329186       5.00035347       8.05871421        0
Li      18.75948637       5.00035347       9.84143851        1
Li      15.86387523       3.57168105       7.28427384        2
Li      10.91768072       3.57168105       5.50154954        3
Ti      11.17133186       5.00035347       8.02569095        4
Ti      16.11752638       5.00035347       9.87446178        5
Ti      18.50583523       3.57168105       7.31729710        6
Ti      13.55964072       3.57168105       5.46852627        7
O       12.40618188       5.00035347       9.63501373        8
O       17.35237640       5.00035347       8.26513900        9
O       17.27098521       3.57168105       5.70797432       10
O       12.32479070       3.57168105       7.07784905       11
O       14.79178798       5.00035347       6.34135778       12
O       19.73798249       5.00035347       6.44446560       13
O       14.88537912       3.57168105       9.00163027       14
O        9.93918460       3.57168105       8.89852245       15
