112
Lattice="12.040307658361872 0.0 0.0 6.020153829180938 10.427212301521708 0.0 6.020153829180938 3.47573743384057 9.830870036370383" Properties=species:S:1:pos:R:3:spacegroup_kinds:I:1 pbc="T T T"
Mg       9.03023074       5.21360615       3.68657626        0
Mg       6.02015383       3.47573743       2.45771751        1
Ti       3.01007691       1.73786872       3.07214689        2
Ti       3.01007691       3.47573743       0.61442938        3
Ti       4.51511537       0.86893436       0.61442938        4
Ti       1.50503846       0.86893436       0.61442938        5
O        6.02015383       3.47573743       4.42435028        6
O        6.02015383       5.32989659       1.80217325        7
O        7.62590276       2.54865785       1.80217325        8
O        4.41440489       2.54865785       1.80217325        9
O        9.03023074       5.21360615       1.71994349       10
O        9.03023074       3.35944699       4.34212052       11
O        7.42448181       6.14068573       4.34212052       12
O       10.63597968       6.14068573       4.34212052       13
Mg      12.04030765       6.95147487       8.60201128        0
Mg       9.03023074       5.21360615       7.37315253        1
Ti       6.02015382       3.47573744       7.98758191        2
Ti       6.02015382       5.21360615       5.52986440        3
Ti       7.52519228       2.60680308       5.52986440        4
Ti       4.51511537       2.60680308       5.52986440        5
O        9.03023074       5.21360615       9.33978530        6
O        9.03023074       7.06776531       6.71760827        7
O       10.63597967       4.28652657       6.71760827        8
O        7.42448180       4.28652657       6.71760827        9
O       12.04030765       6.95147487       6.63537851       10
O       12.04030765       5.09731571       9.25755554       11
O       10.43455872       7.87855445       9.25755554       12
O       13.64605659       7.87855445       9.25755554       13
Mg      12.04030765      10.42721230       3.68657626        0
Mg       9.03023074       8.68934358       2.45771751        1
Ti       6.02015382       6.95147487       3.07214689        2
Ti       6.02015382       8.68934358       0.61442938        3
Ti       7.52519228       6.08254051       0.61442938        4
Ti       4.51511537       6.08254051       0.61442938        5
O        9.03023074       8.68934358       4.42435028        6
O        9.03023074      10.54350274       1.80217325        7
O       10.63597967       7.76226400       1.80217325        8
O        7.42448180       7.76226400       1.80217325        9
O       12.04030765      10.42721230       1.71994349       10
O       12.04030765       8.57305314       4.34212052       11
O       10.43455872      11.35429188       4.34212052       12
O       13.64605659      11.35429188       4.34212052       13
Mg      15.05038457      12.16508102       8.60201128        0
Mg      12.04030766      10.42721230       7.37315253        1
Ti       9.03023074       8.68934359       7.98758191        2
Ti       9.03023074      10.42721230       5.52986440        3
Ti      10.53526920       7.82040923       5.52986440        4
Ti       7.52519229       7.82040923       5.52986440        5
O       12.04030766      10.42721230       9.33978530        6
O       12.04030766      12.28137146       6.71760827        7
O       13.64605659       9.50013272       6.71760827        8
O       10.43455872       9.50013272       6.71760827        9
O       15.05038457      12.16508102       6.63537851       10
O       15.05038457      10.31092186       9.25755554       11
O       13.44463564      13.09216060       9.25755554       12
O       16.65613351      13.09216060       9.25755554       13
Mg      15.05038457       5.21360615       3.68657626        0
Mg      12.04030766       3.47573743       2.45771751        1
Ti       9.03023074       1.73786872       3.07214689        2
Ti       9.03023074       3.47573743       0.61442938        3
Ti      10.53526920       0.86893436       0.61442938        4
Ti       7.52519229       0.86893436       0.61442938        5
O       12.04030766       3.47573743       4.42435028        6
O       12.04030766       5.32989659       1.80217325        7
O       13.64605659       2.54865785       1.80217325        8
O       10.43455872       2.54865785       1.80217325        9
O       15.05038457       5.21360615       1.71994349       10
O       15.05038457       3.35944699       4.34212052       11
O       13.44463564       6.14068573       4.34212052       12
O       16.65613351       6.14068573       4.34212052       13
Mg      18.06046148       6.95147487       8.60201128        0
Mg      15.05038457       5.21360615       7.37315253        1
Ti      12.04030765       3.47573744       7.98758191        2
Ti      12.04030765       5.21360615       5.52986440        3
Ti      13.54534611       2.60680308       5.52986440        4
Ti      10.53526920       2.60680308       5.52986440        5
O       15.05038457       5.21360615       9.33978530        6
O       15.05038457       7.06776531       6.71760827        7
O       16.65613350       4.28652657       6.71760827        8
O       13.44463563       4.28652657       6.71760827        9
O       18.06046148       6.95147487       6.63537851       10
O       18.06046148       5.09731571       9.25755554       11
O       16.45471255       7.87855445       9.25755554       12
O       19.66621042       7.87855445       9.25755554       13
Mg      18.06046148      10.42721230       3.68657626        0
Mg      15.05038457       8.68934358       2.45771751        1
Ti      12.04030765       6.95147487       3.07214689        2
Ti      12.04030765       8.68934358       0.61442938        3
Ti      13.54534611       6.08254051       0.61442938        4
Ti      10.53526920       6.08254051       0.61442938        5
O       15.05038457       8.68934358       4.42435028        6
O       15.05038457      10.54350274       1.80217325        7
O       16.65613350       7.76226400       1.80217325        8
O       13.44463563       7.76226400       1.80217325        9
O       18.06046148      10.42721230       1.71994349       10
O       18.06046148       8.57305314       4.34212052       11
O       16.45471255      11.35429188       4.34212052       12
O       19.66621042      11.35429188       4.34212052       13
Mg      21.07053840      12.16508102       8.60201128        0
Mg      18.06046149      10.42721230       7.37315253        1
Ti      15.05038457       8.68934359       7.98758191        2
Ti      15.05038457      10.42721230       5.52986440        3
Ti      16.55542303       7.82040923       5.52986440        4
Ti      13.54534612       7.82040923       5.52986440        5
O       18.06046149      10.42721230       9.33978530        6
O       18.06046149      12.28137146       6.71760827        7
O       19.66621042       9.50013272       6.71760827        8
O       16.45471255       9.50013272       6.71760827        9
O       21.07053840      12.16508102       6.63537851       10
O       21.07053840      10.31092186       9.25755554       11
O       19.46478947      13.09216060       9.25755554       12
O       22.67628734      13.09216060       9.25755554       13
