256
Lattice="14.1900663999466 0.0 0.0 0.0 16.2327825231072 0.0 0.0 0.0 18.6561262317342" Properties=species:S:1:pos:R:3:spacegroup_kinds:I:1 pbc="T T T"
V        0.48536107       6.08729345       8.85940222        0
V        4.03287767       6.08729345       5.13269245        1
V        6.60967213       2.02909782       0.46866089        2
V        3.06215553       2.02909782       4.19537067        3
S        1.17924059       0.39258626       8.82903658        4
S        1.17924059       3.66560937       8.82903658        5
S        4.72675719       0.39258626       5.16305810        6
S        4.72675719       3.66560937       5.16305810        7
S        5.91579261       4.45078189       0.49902654        8
S        5.91579261       7.72380500       0.49902654        9
S        2.36827601       4.45078189       4.16500502       10
S        2.36827601       7.72380500       4.16500502       11
S        2.96164425       6.08729345       8.20939348       12
S        6.50916085       6.08729345       5.78270119       13
S        4.13338895       2.02909782       1.11866964       14
S        0.58587235       2.02909782       3.54536192       15
S        1.73317704       6.08729345       1.87269631       16
S        5.28069364       6.08729345       2.79133525       17
S        5.36185616       2.02909782       7.45536681       18
S        1.81433956       2.02909782       6.53672787       19
N        1.63462425       3.41412446       7.24734799       20
N        1.63462425       0.64407117       7.24734799       21
N        5.18214085       3.41412446       6.74474669       22
N        5.18214085       0.64407117       6.74474669       23
N        5.46040895       7.47232010       2.08071513       24
N        5.46040895       4.70226680       2.08071513       25
N        1.91289234       7.47232010       2.58331643       26
N        1.91289234       4.70226680       2.58331643       27
N        3.32633021       6.08729345       6.66405242       28
N        6.87384681       6.08729345       7.32804225       29
N        3.76870299       2.02909782       2.66401069       30
N        0.22118639       2.02909782       2.00002087       31
V        0.48536107       6.08729345      18.18746534        0
V        4.03287767       6.08729345      14.46075557        1
V        6.60967213       2.02909782       9.79672401        2
V        3.06215553       2.02909782      13.52343379        3
S        1.17924059       0.39258626      18.15709970        4
S        1.17924059       3.66560937      18.15709970        5
S        4.72675719       0.39258626      14.49112122        6
S        4.72675719       3.66560937      14.49112122        7
S        5.91579261       4.45078189       9.82708966        8
S        5.91579261       7.72380500       9.82708966        9
S        2.36827601       4.45078189      13.49306814       10
S        2.36827601       7.72380500      13.49306814       11
S        2.96164425       6.08729345      17.53745660       12
S        6.50916085       6.08729345      15.11076431       13
S        4.13338895       2.02909782      10.44673276       14
S        0.58587235       2.02909782      12.87342504       15
S        1.73317704       6.08729345      11.20075943       16
S        5.28069364       6.08729345      12.11939837       17
S        5.36185616       2.02909782      16.78342993       18
S        1.81433956       2.02909782      15.86479099       19
N        1.63462425       3.41412446      16.57541111       20
N        1.63462425       0.64407117      16.57541111       21
N        5.18214085       3.41412446      16.07280981       22
N        5.18214085       0.64407117      16.07280981       23
N        5.46040895       7.47232010      11.40877825       24
N        5.46040895       4.70226680      11.40877825       25
N        1.91289234       7.47232010      11.91137955       26
N        1.91289234       4.70226680      11.91137955       27
N        3.32633021       6.08729345      15.99211554       28
N        6.87384681       6.08729345      16.65610537       29
N        3.76870299       2.02909782      11.99207381       30
N        0.22118639       2.02909782      11.32808399       31
V        0.48536107      14.20368471       8.85940222        0
V        4.03287767      14.20368471       5.13269245        1
V        6.60967213      10.14548908       0.46866089        2
V        3.06215553      10.14548908       4.19537067        3
S        1.17924059       8.50897752       8.82903658        4
S        1.17924059      11.78200063       8.82903658        5
S        4.72675719       8.50897752       5.16305810        6
S        4.72675719      11.78200063       5.16305810        7
S        5.91579261      12.56717315       0.49902654        8
S        5.91579261      15.84019626       0.49902654        9
S        2.36827601      12.56717315       4.16500502       10
S        2.36827601      15.84019626       4.16500502       11
S        2.96164425      14.20368471       8.20939348       12
S        6.50916085      14.20368471       5.78270119       13
S        4.13338895      10.14548908       1.11866964       14
S        0.58587235      10.14548908       3.54536192       15
S        1.73317704      14.20368471       1.87269631       16
S        5.28069364      14.20368471       2.79133525       17
S        5.36185616      10.14548908       7.45536681       18
S        1.81433956      10.14548908       6.53672787       19
N        1.63462425      11.53051572       7.24734799       20
N        1.63462425       8.76046243       7.24734799       21
N        5.18214085      11.53051572       6.74474669       22
N        5.18214085       8.76046243       6.74474669       23
N        5.46040895      15.58871136       2.08071513       24
N        5.46040895      12.81865806       2.08071513       25
N        1.91289234      15.58871136       2.58331643       26
N        1.91289234      12.81865806       2.58331643       27
N        3.32633021      14.20368471       6.66405242       28
N        6.87384681      14.20368471       7.32804225       29
N        3.76870299      10.14548908       2.66401069       30
N        0.22118639      10.14548908       2.00002087       31
V        0.48536107      14.20368471      18.18746534        0
V        4.03287767      14.20368471      14.46075557        1
V        6.60967213      10.14548908       9.79672401        2
V        3.06215553      10.14548908      13.52343379        3
S        1.17924059       8.50897752      18.15709970        4
S        1.17924059      11.78200063      18.15709970        5
S        4.72675719       8.50897752      14.49112122        6
S        4.72675719      11.78200063      14.49112122        7
S        5.91579261      12.56717315       9.82708966        8
S        5.91579261      15.84019626       9.82708966        9
S        2.36827601      12.56717315      13.49306814       10
S        2.36827601      15.84019626      13.49306814       11
S        2.96164425      14.20368471      17.53745660       12
S        6.50916085      14.20368471      15.11076431       13
S        4.13338895      10.14548908      10.44673276       14
S        0.58587235      10.14548908      12.87342504       15
S        1.73317704      14.20368471      11.20075943       16
S        5.28069364      14.20368471      12.11939837       17
S        5.36185616      10.14548908      16.78342993       18
S        1.81433956      10.14548908      15.86479099       19
N        1.63462425      11.53051572      16.57541111       20
N        1.63462425       8.76046243      16.57541111       21
N        5.18214085      11.53051572      16.07280981       22
N        5.18214085       8.76046243      16.07280981       23
N        5.46040895      15.58871136      11.40877825       24
N        5.46040895      12.81865806      11.40877825       25
N        1.91289234      15.58871136      11.91137955       26
N        1.91289234      12.81865806      11.91137955       27
N        3.32633021      14.20368471      15.99211554       28
N        6.87384681      14.20368471      16.65610537       29
N        3.76870299      10.14548908      11.99207381       30
N        0.22118639      10.14548908      11.32808399       31
V        7.58039427       6.08729345       8.85940222        0
V       11.12791087       6.08729345       5.13269245        1
V       13.70470533       2.02909782       0.46866089        2
V       10.15718873       2.02909782       4.19537067        3
S        8.27427379       0.39258626       8.82903658        4
S        8.27427379       3.66560937       8.82903658        5
S       11.82179039       0.39258626       5.16305810        6
S       11.82179039       3.66560937       5.16305810        7
S       13.01082581       4.45078189       0.49902654        8
S       13.01082581       7.72380500       0.49902654        9
S        9.46330921       4.45078189       4.16500502       10
S        9.46330921       7.72380500       4.16500502       11
S       10.05667745       6.08729345       8.20939348       12
S       13.60419405       6.08729345       5.78270119       13
S       11.22842215       2.02909782       1.11866964       14
S        7.68090555       2.02909782       3.54536192       15
S        8.82821024       6.08729345       1.87269631       16
S       12.37572684       6.08729345       2.79133525       17
S       12.45688936       2.02909782       7.45536681       18
S        8.90937276       2.02909782       6.53672787       19
N        8.72965745       3.41412446       7.24734799       20
N        8.72965745       0.64407117       7.24734799       21
N       12.27717405       3.41412446       6.74474669       22
N       12.27717405       0.64407117       6.74474669       23
N       12.55544215       7.47232010       2.08071513       24
N       12.55544215       4.70226680       2.08071513       25
N        9.00792554       7.47232010       2.58331643       26
N        9.00792554       4.70226680       2.58331643       27
N       10.42136341       6.08729345       6.66405242       28
N       13.96888001       6.08729345       7.32804225       29
N       10.86373619       2.02909782       2.66401069       30
N        7.31621959       2.02909782       2.00002087       31
V        7.58039427       6.08729345      18.18746534        0
V       11.12791087       6.08729345      14.46075557        1
V       13.70470533       2.02909782       9.79672401        2
V       10.15718873       2.02909782      13.52343379        3
S        8.27427379       0.39258626      18.15709970        4
S        8.27427379       3.66560937      18.15709970        5
S       11.82179039       0.39258626      14.49112122        6
S       11.82179039       3.66560937      14.49112122        7
S       13.01082581       4.45078189       9.82708966        8
S       13.01082581       7.72380500       9.82708966        9
S        9.46330921       4.45078189      13.49306814       10
S        9.46330921       7.72380500      13.49306814       11
S       10.05667745       6.08729345      17.53745660       12
S       13.60419405       6.08729345      15.11076431       13
S       11.22842215       2.02909782      10.44673276       14
S        7.68090555       2.02909782      12.87342504       15
S        8.82821024       6.08729345      11.20075943       16
S       12.37572684       6.08729345      12.11939837       17
S       12.45688936       2.02909782      16.78342993       18
S        8.90937276       2.02909782      15.86479099       19
N        8.72965745       3.41412446      16.57541111       20
N        8.72965745       0.64407117      16.57541111       21
N       12.27717405       3.41412446      16.07280981       22
N       12.27717405       0.64407117      16.07280981       23
N       12.55544215       7.47232010      11.40877825       24
N       12.55544215       4.70226680      11.40877825       25
N        9.00792554       7.47232010      11.91137955       26
N        9.00792554       4.70226680      11.91137955       27
N       10.42136341       6.08729345      15.99211554       28
N       13.96888001       6.08729345      16.65610537       29
N       10.86373619       2.02909782      11.99207381       30
N        7.31621959       2.02909782      11.32808399       31
V        7.58039427      14.20368471       8.85940222        0
V       11.12791087      14.20368471       5.13269245        1
V       13.70470533      10.14548908       0.46866089        2
V       10.15718873      10.14548908       4.19537067        3
S        8.27427379       8.50897752       8.82903658        4
S        8.27427379      11.78200063       8.82903658        5
S       11.82179039       8.50897752       5.16305810        6
S       11.82179039      11.78200063       5.16305810        7
S       13.01082581      12.56717315       0.49902654        8
S       13.01082581      15.84019626       0.49902654        9
S        9.46330921      12.56717315       4.16500502       10
S        9.46330921      15.84019626       4.16500502       11
S       10.05667745      14.20368471       8.20939348       12
S       13.60419405      14.20368471       5.78270119       13
S       11.22842215      10.14548908       1.11866964       14
S        7.68090555      10.14548908       3.54536192       15
S        8.82821024      14.20368471       1.87269631       16
S       12.37572684      14.20368471       2.79133525       17
S       12.45688936      10.14548908       7.45536681       18
S        8.90937276      10.14548908       6.53672787       19
N        8.72965745      11.53051572       7.24734799       20
N        8.72965745       8.76046243       7.24734799       21
N       12.27717405      11.53051572       6.74474669       22
N       12.27717405       8.76046243       6.74474669       23
N       12.55544215      15.58871136       2.08071513       24
N       12.55544215      12.81865806       2.08071513       25
N        9.00792554      15.58871136       2.58331643       26
N        9.00792554      12.81865806       2.58331643       27
N       10.42136341      14.20368471       6.66405242       28
N       13.96888001      14.20368471       7.32804225       29
N       10.86373619      10.14548908       2.66401069       30
N        7.31621959      10.14548908       2.00002087       31
V        7.58039427      14.20368471      18.18746534        0
V       11.12791087      14.20368471      14.46075557        1
V       13.70470533      10.14548908       9.79672401        2
V       10.15718873      10.14548908      13.52343379        3
S        8.27427379       8.50897752      18.15709970        4
S        8.27427379      11.78200063      18.15709970        5
S       11.82179039       8.50897752      14.49112122        6
S       11.82179039      11.78200063      14.49112122        7
S       13.01082581      12.56717315       9.82708966        8
S       13.01082581      15.84019626       9.82708966        9
S        9.46330921      12.56717315      13.49306814       10
S        9.46330921      15.84019626      13.49306814       11
S       10.05667745      14.20368471      17.53745660       12
S       13.60419405      14.20368471      15.11076431       13
S       11.22842215      10.14548908      10.44673276       14
S        7.68090555      10.14548908      12.87342504       15
S        8.82821024      14.20368471      11.20075943       16
S       12.37572684      14.20368471      12.11939837       17
S       12.45688936      10.14548908      16.78342993       18
S        8.90937276      10.14548908      15.86479099       19
N        8.72965745      11.53051572      16.57541111       20
N        8.72965745       8.76046243      16.57541111       21
N       12.27717405      11.53051572      16.07280981       22
N       12.27717405       8.76046243      16.07280981       23
N       12.55544215      15.58871136      11.40877825       24
N       12.55544215      12.81865806      11.40877825       25
N        9.00792554      15.58871136      11.91137955       26
N        9.00792554      12.81865806      11.91137955       27
N       10.42136341      14.20368471      15.99211554       28
N       13.96888001      14.20368471      16.65610537       29
N       10.86373619      10.14548908      11.99207381       30
N        7.31621959      10.14548908      11.32808399       31
