240
Lattice="12.58805852824889 0.0 0.0 0.0 12.9272593248958 0.0 -6.402871954659904 0.0 18.625486639117064" Properties=species:S:1:pos:R:3:spacegroup_kinds:I:1 pbc="T T T"
Na      -1.25949542       6.36845478       7.82382072        0
Na      -1.25949542       3.32698972       7.82382072        1
Na       4.35208871       3.13663995       1.48892260        2
Na       4.35208871       0.09517489       1.48892260        3
Na       1.14141777       4.84772225       1.80775670        4
Na       1.95117551       1.61590742       7.50498662        5
V        3.12032174       4.84772225       5.37980719        6
V       -0.02772846       1.61590742       3.93293613        7
P        1.81482256       4.84772225       8.41760088        8
P        1.27777073       1.61590742       0.89514244        9
P       -0.06374737       4.84772225       4.67468403       10
P        3.15634066       1.61590742       4.63805929       11
O        3.20190341       2.85847775       5.57239958       12
O        3.20190341       0.37333708       5.57239958       13
O       -0.10931012       6.09029258       3.74034374       14
O       -0.10931012       3.60515191       3.74034374       15
O        0.99099958       6.13412176       8.17678607       16
O        0.99099958       3.56132273       8.17678607       17
O        2.10159371       2.90230693       1.13595725       18
O        2.10159371       0.32950790       1.13595725       19
O        5.56017788       4.84772225       0.55977044       20
O       -2.46758459       1.61590742       8.75297288       21
O        3.08933248       4.84772225       7.41465288       22
O        0.00326080       1.61590742       1.89809044       23
O        3.25492033       4.84772225       3.76319901       24
O       -0.16232705       1.61590742       5.54954431       25
O        1.26754540       4.84772225       5.48647374       26
O        1.82504789       1.61590742       3.82626958       27
O       -1.20750987       4.84772225       5.73242447       28
O        4.30010315       1.61590742       3.58031885       29
Na      -4.46093140       6.36845478      17.13656404        0
Na      -4.46093140       3.32698972      17.13656404        1
Na       1.15065273       3.13663995      10.80166592        2
Na       1.15065273       0.09517489      10.80166592        3
Na      -2.06001821       4.84772225      11.12050002        4
Na      -1.25026047       1.61590742      16.81772994        5
V       -0.08111424       4.84772225      14.69255051        6
V       -3.22916444       1.61590742      13.24567945        7
P       -1.38661342       4.84772225      17.73034420        8
P       -1.92366525       1.61590742      10.20788576        9
P       -3.26518335       4.84772225      13.98742735       10
P       -0.04509532       1.61590742      13.95080261       11
O        0.00046743       2.85847775      14.88514290       12
O        0.00046743       0.37333708      14.88514290       13
O       -3.31074610       6.09029258      13.05308706       14
O       -3.31074610       3.60515191      13.05308706       15
O       -2.21043640       6.13412176      17.48952939       16
O       -2.21043640       3.56132273      17.48952939       17
O       -1.09984227       2.90230693      10.44870057       18
O       -1.09984227       0.32950790      10.44870057       19
O        2.35874190       4.84772225       9.87251376       20
O       -5.66902057       1.61590742      18.06571620       21
O       -0.11210350       4.84772225      16.72739620       22
O       -3.19817518       1.61590742      11.21083376       23
O        0.05348435       4.84772225      13.07594233       24
O       -3.36376303       1.61590742      14.86228763       25
O       -1.93389058       4.84772225      14.79921706       26
O       -1.37638809       1.61590742      13.13901290       27
O       -4.40894585       4.84772225      15.04516779       28
O        1.09866717       1.61590742      12.89306217       29
Na      -1.25949542      12.83208444       7.82382072        0
Na      -1.25949542       9.79061938       7.82382072        1
Na       4.35208871       9.60026961       1.48892260        2
Na       4.35208871       6.55880455       1.48892260        3
Na       1.14141777      11.31135191       1.80775670        4
Na       1.95117551       8.07953708       7.50498662        5
V        3.12032174      11.31135191       5.37980719        6
V       -0.02772846       8.07953708       3.93293613        7
P        1.81482256      11.31135191       8.41760088        8
P        1.27777073       8.07953708       0.89514244        9
P       -0.06374737      11.31135191       4.67468403       10
P        3.15634066       8.07953708       4.63805929       11
O        3.20190341       9.32210741       5.57239958       12
O        3.20190341       6.83696674       5.57239958       13
O       -0.10931012      12.55392224       3.74034374       14
O       -0.10931012      10.06878157       3.74034374       15
O        0.99099958      12.59775142       8.17678607       16
O        0.99099958      10.02495239       8.17678607       17
O        2.10159371       9.36593659       1.13595725       18
O        2.10159371       6.79313756       1.13595725       19
O        5.56017788      11.31135191       0.55977044       20
O       -2.46758459       8.07953708       8.75297288       21
O        3.08933248      11.31135191       7.41465288       22
O        0.00326080       8.07953708       1.89809044       23
O        3.25492033      11.31135191       3.76319901       24
O       -0.16232705       8.07953708       5.54954431       25
O        1.26754540      11.31135191       5.48647374       26
O        1.82504789       8.07953708       3.82626958       27
O       -1.20750987      11.31135191       5.73242447       28
O        4.30010315       8.07953708       3.58031885       29
Na      -4.46093140      12.83208444      17.13656404        0
Na      -4.46093140       9.79061938      17.13656404        1
Na       1.15065273       9.60026961      10.80166592        2
Na       1.15065273       6.55880455      10.80166592        3
Na      -2.06001821      11.31135191      11.12050002        4
Na      -1.25026047       8.07953708      16.81772994        5
V       -0.08111424      11.31135191      14.69255051        6
V       -3.22916444       8.07953708      13.24567945        7
P       -1.38661342      11.31135191      17.73034420        8
P       -1.92366525       8.07953708      10.20788576        9
P       -3.26518335      11.31135191      13.98742735       10
P       -0.04509532       8.07953708      13.95080261       11
O        0.00046743       9.32210741      14.88514290       12
O        0.00046743       6.83696674      14.88514290       13
O       -3.31074610      12.55392224      13.05308706       14
O       -3.31074610      10.06878157      13.05308706       15
O       -2.21043640      12.59775142      17.48952939       16
O       -2.21043640      10.02495239      17.48952939       17
O       -1.09984227       9.36593659      10.44870057       18
O       -1.09984227       6.79313756      10.44870057       19
O        2.35874190      11.31135191       9.87251376       20
O       -5.66902057       8.07953708      18.06571620       21
O       -0.11210350      11.31135191      16.72739620       22
O       -3.19817518       8.07953708      11.21083376       23
O        0.05348435      11.31135191      13.07594233       24
O       -3.36376303       8.07953708      14.86228763       25
O       -1.93389058      11.31135191      14.79921706       26
O       -1.37638809       8.07953708      13.13901290       27
O       -4.40894585      11.31135191      15.04516779       28
O        1.09866717       8.07953708      12.89306217       29
Na       5.03453384       6.36845478       7.82382072        0
Na       5.03453384       3.32698972       7.82382072        1
Na      10.64611797       3.13663995       1.48892260        2
Na      10.64611797       0.09517489       1.48892260        3
Na       7.43544703       4.84772225       1.80775670        4
Na       8.24520477       1.61590742       7.50498662        5
V        9.41435100       4.84772225       5.37980719        6
V        6.26630080       1.61590742       3.93293613        7
P        8.10885182       4.84772225       8.41760088        8
P        7.57179999       1.61590742       0.89514244        9
P        6.23028189       4.84772225       4.67468403       10
P        9.45036992       1.61590742       4.63805929       11
O        9.49593267       2.85847775       5.57239958       12
O        9.49593267       0.37333708       5.57239958       13
O        6.18471914       6.09029258       3.74034374       14
O        6.18471914       3.60515191       3.74034374       15
O        7.28502884       6.13412176       8.17678607       16
O        7.28502884       3.56132273       8.17678607       17
O        8.39562297       2.90230693       1.13595725       18
O        8.39562297       0.32950790       1.13595725       19
O       11.85420714       4.84772225       0.55977044       20
O        3.82644467       1.61590742       8.75297288       21
O        9.38336174       4.84772225       7.41465288       22
O        6.29729006       1.61590742       1.89809044       23
O        9.54894959       4.84772225       3.76319901       24
O        6.13170221       1.61590742       5.54954431       25
O        7.56157466       4.84772225       5.48647374       26
O        8.11907715       1.61590742       3.82626958       27
O        5.08651939       4.84772225       5.73242447       28
O       10.59413241       1.61590742       3.58031885       29
Na       1.83309787       6.36845478      17.13656404        0
Na       1.83309787       3.32698972      17.13656404        1
Na       7.44468200       3.13663995      10.80166592        2
Na       7.44468200       0.09517489      10.80166592        3
Na       4.23401106       4.84772225      11.12050002        4
Na       5.04376880       1.61590742      16.81772994        5
V        6.21291503       4.84772225      14.69255051        6
V        3.06486483       1.61590742      13.24567945        7
P        4.90741585       4.84772225      17.73034420        8
P        4.37036402       1.61590742      10.20788576        9
P        3.02884592       4.84772225      13.98742735       10
P        6.24893395       1.61590742      13.95080261       11
O        6.29449670       2.85847775      14.88514290       12
O        6.29449670       0.37333708      14.88514290       13
O        2.98328317       6.09029258      13.05308706       14
O        2.98328317       3.60515191      13.05308706       15
O        4.08359287       6.13412176      17.48952939       16
O        4.08359287       3.56132273      17.48952939       17
O        5.19418700       2.90230693      10.44870057       18
O        5.19418700       0.32950790      10.44870057       19
O        8.65277117       4.84772225       9.87251376       20
O        0.62500870       1.61590742      18.06571620       21
O        6.18192577       4.84772225      16.72739620       22
O        3.09585409       1.61590742      11.21083376       23
O        6.34751362       4.84772225      13.07594233       24
O        2.93026624       1.61590742      14.86228763       25
O        4.36013869       4.84772225      14.79921706       26
O        4.91764118       1.61590742      13.13901290       27
O        1.88508342       4.84772225      15.04516779       28
O        7.39269644       1.61590742      12.89306217       29
Na       5.03453384      12.83208444       7.82382072        0
Na       5.03453384       9.79061938       7.82382072        1
Na      10.64611797       9.60026961       1.48892260        2
Na      10.64611797       6.55880455       1.48892260        3
Na       7.43544703      11.31135191       1.80775670        4
Na       8.24520477       8.07953708       7.50498662        5
V        9.41435100      11.31135191       5.37980719        6
V        6.26630080       8.07953708       3.93293613        7
P        8.10885182      11.31135191       8.41760088        8
P        7.57179999       8.07953708       0.89514244        9
P        6.23028189      11.31135191       4.67468403       10
P        9.45036992       8.07953708       4.63805929       11
O        9.49593267       9.32210741       5.57239958       12
O        9.49593267       6.83696674       5.57239958       13
O        6.18471914      12.55392224       3.74034374       14
O        6.18471914      10.06878157       3.74034374       15
O        7.28502884      12.59775142       8.17678607       16
O        7.28502884      10.02495239       8.17678607       17
O        8.39562297       9.36593659       1.13595725       18
O        8.39562297       6.79313756       1.13595725       19
O       11.85420714      11.31135191       0.55977044       20
O        3.82644467       8.07953708       8.75297288       21
O        9.38336174      11.31135191       7.41465288       22
O        6.29729006       8.07953708       1.89809044       23
O        9.54894959      11.31135191       3.76319901       24
O        6.13170221       8.07953708       5.54954431       25
O        7.56157466      11.31135191       5.48647374       26
O        8.11907715       8.07953708       3.82626958       27
O        5.08651939      11.31135191       5.73242447       28
O       10.59413241       8.07953708       3.58031885       29
Na       1.83309787      12.83208444      17.13656404        0
Na       1.83309787       9.79061938      17.13656404        1
Na       7.44468200       9.60026961      10.80166592        2
Na       7.44468200       6.55880455      10.80166592        3
Na       4.23401106      11.31135191      11.12050002        4
Na       5.04376880       8.07953708      16.81772994        5
V        6.21291503      11.31135191      14.69255051        6
V        3.06486483       8.07953708      13.24567945        7
P        4.90741585      11.31135191      17.73034420        8
P        4.37036402       8.07953708      10.20788576        9
P        3.02884592      11.31135191      13.98742735       10
P        6.24893395       8.07953708      13.95080261       11
O        6.29449670       9.32210741      14.88514290       12
O        6.29449670       6.83696674      14.88514290       13
O        2.98328317      12.55392224      13.05308706       14
O        2.98328317      10.06878157      13.05308706       15
O        4.08359287      12.59775142      17.48952939       16
O        4.08359287      10.02495239      17.48952939       17
O        5.19418700       9.36593659      10.44870057       18
O        5.19418700       6.79313756      10.44870057       19
O        8.65277117      11.31135191       9.87251376       20
O        0.62500870       8.07953708      18.06571620       21
O        6.18192577      11.31135191      16.72739620       22
O        3.09585409       8.07953708      11.21083376       23
O        6.34751362      11.31135191      13.07594233       24
O        2.93026624       8.07953708      14.86228763       25
O        4.36013869      11.31135191      14.79921706       26
O        4.91764118       8.07953708      13.13901290       27
O        1.88508342      11.31135191      15.04516779       28
O        7.39269644       8.07953708      12.89306217       29
