128
Lattice="15.49581395961713 0.0 0.0 -3.21349972034903 15.158946857165963 0.0 0.0 0.0 11.8992906783172" Properties=species:S:1:pos:R:3:spacegroup_kinds:I:1 pbc="T T T"
Na       0.68224860       3.13500017       0.11245096        0
Na       2.92536394       1.31754889       3.08727363        1
Na       3.21579318       6.26192454       0.11245096        2
Na       5.45890852       4.44447326       3.08727363        3
Na      -0.50570243       6.68736590       0.00133105        4
Na       6.64685954       0.89210753       2.97615372        5
V        1.16562071       5.33320086       2.49860637        6
V        4.97553641       2.24627257       5.47342904        7
S        5.38188199       4.27194529       0.20848004        8
S        3.06298950       6.15079391       3.18330271        9
S        3.07816762       1.42867952       0.20848004       10
S        0.75927513       3.30752814       3.18330271       11
S       -0.48324299       6.66916847       3.08803129       12
S        6.62440011       0.91030495       0.11320862       13
O        1.20577019       5.30067033       0.83239832       14
O        4.93538693       2.27880310       3.80722099       15
Na       0.68224860       3.13500017       6.06209630        0
Na       2.92536394       1.31754889       9.03691897        1
Na       3.21579318       6.26192454       6.06209630        2
Na       5.45890852       4.44447326       9.03691897        3
Na      -0.50570243       6.68736590       5.95097639        4
Na       6.64685954       0.89210753       8.92579906        5
V        1.16562071       5.33320086       8.44825171        6
V        4.97553641       2.24627257      11.42307438        7
S        5.38188199       4.27194529       6.15812538        8
S        3.06298950       6.15079391       9.13294805        9
S        3.07816762       1.42867952       6.15812538       10
S        0.75927513       3.30752814       9.13294805       11
S       -0.48324299       6.66916847       9.03767663       12
S        6.62440011       0.91030495       6.06285396       13
O        1.20577019       5.30067033       6.78204366       14
O        4.93538693       2.27880310       9.75686633       15
Na      -0.92450126      10.71447360       0.11245096        0
Na       1.31861408       8.89702232       3.08727363        1
Na       1.60904332      13.84139797       0.11245096        2
Na       3.85215866      12.02394669       3.08727363        3
Na      -2.11245229      14.26683933       0.00133105        4
Na       5.04010968       8.47158096       2.97615372        5
V       -0.44112915      12.91267429       2.49860637        6
V        3.36878655       9.82574600       5.47342904        7
S        3.77513213      11.85141872       0.20848004        8
S        1.45623964      13.73026734       3.18330271        9
S        1.47141776       9.00815295       0.20848004       10
S       -0.84747473      10.88700157       3.18330271       11
S       -2.08999285      14.24864190       3.08803129       12
S        5.01765025       8.48977838       0.11320862       13
O       -0.40097967      12.88014376       0.83239832       14
O        3.32863707       9.85827653       3.80722099       15
Na      -0.92450126      10.71447360       6.06209630        0
Na       1.31861408       8.89702232       9.03691897        1
Na       1.60904332      13.84139797       6.06209630        2
Na       3.85215866      12.02394669       9.03691897        3
Na      -2.11245229      14.26683933       5.95097639        4
Na       5.04010968       8.47158096       8.92579906        5
V       -0.44112915      12.91267429       8.44825171        6
V        3.36878655       9.82574600      11.42307438        7
S        3.77513213      11.85141872       6.15812538        8
S        1.45623964      13.73026734       9.13294805        9
S        1.47141776       9.00815295       6.15812538       10
S       -0.84747473      10.88700157       9.13294805       11
S       -2.08999285      14.24864190       9.03767663       12
S        5.01765025       8.48977838       6.06285396       13
O       -0.40097967      12.88014376       6.78204366       14
O        3.32863707       9.85827653       9.75686633       15
Na       8.43015558       3.13500017       0.11245096        0
Na      10.67327092       1.31754889       3.08727363        1
Na      10.96370016       6.26192454       0.11245096        2
Na      13.20681550       4.44447326       3.08727363        3
Na       7.24220455       6.68736590       0.00133105        4
Na      14.39476652       0.89210753       2.97615372        5
V        8.91352769       5.33320086       2.49860637        6
V       12.72344339       2.24627257       5.47342904        7
S       13.12978897       4.27194529       0.20848004        8
S       10.81089648       6.15079391       3.18330271        9
S       10.82607460       1.42867952       0.20848004       10
S        8.50718211       3.30752814       3.18330271       11
S        7.26466399       6.66916847       3.08803129       12
S       14.37230709       0.91030495       0.11320862       13
O        8.95367717       5.30067033       0.83239832       14
O       12.68329391       2.27880310       3.80722099       15
Na       8.43015558       3.13500017       6.06209630        0
Na      10.67327092       1.31754889       9.03691897        1
Na      10.96370016       6.26192454       6.06209630        2
Na      13.20681550       4.44447326       9.03691897        3
Na       7.24220455       6.68736590       5.95097639        4
Na      14.39476652       0.89210753       8.92579906        5
V        8.91352769       5.33320086       8.44825171        6
V       12.72344339       2.24627257      11.42307438        7
S       13.12978897       4.27194529       6.15812538        8
S       10.81089648       6.15079391       9.13294805        9
S       10.82607460       1.42867952       6.15812538       10
S        8.50718211       3.30752814       9.13294805       11
S        7.26466399       6.66916847       9.03767663       12
S       14.37230709       0.91030495       6.06285396       13
O        8.95367717       5.30067033       6.78204366       14
O       12.68329391       2.27880310       9.75686633       15
Na       6.82340572      10.71447360       0.11245096        0
Na       9.06652106       8.89702232       3.08727363        1
Na       9.35695030      13.84139797       0.11245096        2
Na      11.60006564      12.02394669       3.08727363        3
Na       5.63545469      14.26683933       0.00133105        4
Na      12.78801666       8.47158096       2.97615372        5
V        7.30677783      12.91267429       2.49860637        6
V       11.11669353       9.82574600       5.47342904        7
S       11.52303911      11.85141872       0.20848004        8
S        9.20414662      13.73026734       3.18330271        9
S        9.21932474       9.00815295       0.20848004       10
S        6.90043225      10.88700157       3.18330271       11
S        5.65791413      14.24864190       3.08803129       12
S       12.76555723       8.48977838       0.11320862       13
O        7.34692731      12.88014376       0.83239832       14
O       11.07654405       9.85827653       3.80722099       15
Na       6.82340572      10.71447360       6.06209630        0
Na       9.06652106       8.89702232       9.03691897        1
Na       9.35695030      13.84139797       6.06209630        2
Na      11.60006564      12.02394669       9.03691897        3
Na       5.63545469      14.26683933       5.95097639        4
Na      12.78801666       8.47158096       8.92579906        5
V        7.30677783      12.91267429       8.44825171        6
V       11.11669353       9.82574600      11.42307438        7
S       11.52303911      11.85141872       6.15812538        8
S        9.20414662      13.73026734       9.13294805        9
S        9.21932474       9.00815295       6.15812538       10
S        6.90043225      10.88700157       9.13294805       11
S        5.65791413      14.24864190       9.03767663       12
S       12.76555723       8.48977838       6.06285396       13
O        7.34692731      12.88014376       6.78204366       14
O       11.07654405       9.85827653       9.75686633       15
