256
Lattice="11.9218033572 0.0 0.0 0.0 19.4936248898 0.0 0.0 0.0 24.0410457886" Properties=species:S:1:pos:R:3:spacegroup_kinds:I:1 pbc="T T T"
Na       1.48497577       9.31563814      10.46027664        0
Na       1.48497577       5.30458053      10.46027664        1
Na       4.46542661       9.31563814       7.57050770        2
Na       4.46542661       5.30458053       7.57050770        3
Na       4.47592591       4.44223192       1.56024626        4
Na       4.47592591       0.43117430       1.56024626        5
Na       1.49547507       4.44223192       4.45001519        6
Na       1.49547507       0.43117430       4.45001519        7
Na       1.55957751       7.31010933       1.59100085        8
Na       4.54002835       7.31010933       4.41926060        9
Na       4.40132416       2.43670311      10.42952205       10
Na       1.42087333       2.43670311       7.60126230       11
V        2.04864661       7.31010933       6.56957151       12
V        5.02909745       7.31010933      11.46121283       13
V        3.91225506       2.43670311       5.45095138       14
V        0.93180423       2.43670311       0.55931007       15
S        1.36299970       9.14306058       7.52181429       16
S        1.36299970       5.47715809       7.52181429       17
S        4.34345054       9.14306058      10.50897005       18
S        4.34345054       5.47715809      10.50897005       19
S        4.59790198       4.26965435       4.49870860       20
S        4.59790198       0.60375187       4.49870860       21
S        1.61745114       4.26965435       1.51155285       22
S        1.61745114       0.60375187       1.51155285       23
S        1.46919064       7.31010933       4.44740740       24
S        4.44964148       7.31010933       1.56285405       25
S        4.49171104       2.43670311       7.57311549       26
S        1.51126020       2.43670311      10.45766885       27
O        0.73485778       7.31010933      11.40732180       28
O        3.71530862       7.31010933       6.62346254       29
O        5.22604390       2.43670311       0.61320109       30
O        2.24559306       2.43670311       5.39706036       31
Na       1.48497577       9.31563814      22.48079953        0
Na       1.48497577       5.30458053      22.48079953        1
Na       4.46542661       9.31563814      19.59103059        2
Na       4.46542661       5.30458053      19.59103059        3
Na       4.47592591       4.44223192      13.58076915        4
Na       4.47592591       0.43117430      13.58076915        5
Na       1.49547507       4.44223192      16.47053808        6
Na       1.49547507       0.43117430      16.47053808        7
Na       1.55957751       7.31010933      13.61152374        8
Na       4.54002835       7.31010933      16.43978349        9
Na       4.40132416       2.43670311      22.45004494       10
Na       1.42087333       2.43670311      19.62178519       11
V        2.04864661       7.31010933      18.59009440       12
V        5.02909745       7.31010933      23.48173572       13
V        3.91225506       2.43670311      17.47147427       14
V        0.93180423       2.43670311      12.57983296       15
S        1.36299970       9.14306058      19.54233718       16
S        1.36299970       5.47715809      19.54233718       17
S        4.34345054       9.14306058      22.52949294       18
S        4.34345054       5.47715809      22.52949294       19
S        4.59790198       4.26965435      16.51923149       20
S        4.59790198       0.60375187      16.51923149       21
S        1.61745114       4.26965435      13.53207574       22
S        1.61745114       0.60375187      13.53207574       23
S        1.46919064       7.31010933      16.46793029       24
S        4.44964148       7.31010933      13.58337694       25
S        4.49171104       2.43670311      19.59363838       26
S        1.51126020       2.43670311      22.47819174       27
O        0.73485778       7.31010933      23.42784469       28
O        3.71530862       7.31010933      18.64398543       29
O        5.22604390       2.43670311      12.63372398       30
O        2.24559306       2.43670311      17.41758325       31
Na       1.48497577      19.06245058      10.46027664        0
Na       1.48497577      15.05139297      10.46027664        1
Na       4.46542661      19.06245058       7.57050770        2
Na       4.46542661      15.05139297       7.57050770        3
Na       4.47592591      14.18904436       1.56024626        4
Na       4.47592591      10.17798674       1.56024626        5
Na       1.49547507      14.18904436       4.45001519        6
Na       1.49547507      10.17798674       4.45001519        7
Na       1.55957751      17.05692177       1.59100085        8
Na       4.54002835      17.05692177       4.41926060        9
Na       4.40132416      12.18351555      10.42952205       10
Na       1.42087333      12.18351555       7.60126230       11
V        2.04864661      17.05692177       6.56957151       12
V        5.02909745      17.05692177      11.46121283       13
V        3.91225506      12.18351555       5.45095138       14
V        0.93180423      12.18351555       0.55931007       15
S        1.36299970      18.88987302       7.52181429       16
S        1.36299970      15.22397053       7.52181429       17
S        4.34345054      18.88987302      10.50897005       18
S        4.34345054      15.22397053      10.50897005       19
S        4.59790198      14.01646679       4.49870860       20
S        4.59790198      10.35056431       4.49870860       21
S        1.61745114      14.01646679       1.51155285       22
S        1.61745114      10.35056431       1.51155285       23
S        1.46919064      17.05692177       4.44740740       24
S        4.44964148      17.05692177       1.56285405       25
S        4.49171104      12.18351555       7.57311549       26
S        1.51126020      12.18351555      10.45766885       27
O        0.73485778      17.05692177      11.40732180       28
O        3.71530862      17.05692177       6.62346254       29
O        5.22604390      12.18351555       0.61320109       30
O        2.24559306      12.18351555       5.39706036       31
Na       1.48497577      19.06245058      22.48079953        0
Na       1.48497577      15.05139297      22.48079953        1
Na       4.46542661      19.06245058      19.59103059        2
Na       4.46542661      15.05139297      19.59103059        3
Na       4.47592591      14.18904436      13.58076915        4
Na       4.47592591      10.17798674      13.58076915        5
Na       1.49547507      14.18904436      16.47053808        6
Na       1.49547507      10.17798674      16.47053808        7
Na       1.55957751      17.05692177      13.61152374        8
Na       4.54002835      17.05692177      16.43978349        9
Na       4.40132416      12.18351555      22.45004494       10
Na       1.42087333      12.18351555      19.62178519       11
V        2.04864661      17.05692177      18.59009440       12
V        5.02909745      17.05692177      23.48173572       13
V        3.91225506      12.18351555      17.47147427       14
V        0.93180423      12.18351555      12.57983296       15
S        1.36299970      18.88987302      19.54233718       16
S        1.36299970      15.22397053      19.54233718       17
S        4.34345054      18.88987302      22.52949294       18
S        4.34345054      15.22397053      22.52949294       19
S        4.59790198      14.01646679      16.51923149       20
S        4.59790198      10.35056431      16.51923149       21
S        1.61745114      14.01646679      13.53207574       22
S        1.61745114      10.35056431      13.53207574       23
S        1.46919064      17.05692177      16.46793029       24
S        4.44964148      17.05692177      13.58337694       25
S        4.49171104      12.18351555      19.59363838       26
S        1.51126020      12.18351555      22.47819174       27
O        0.73485778      17.05692177      23.42784469       28
O        3.71530862      17.05692177      18.64398543       29
O        5.22604390      12.18351555      12.63372398       30
O        2.24559306      12.18351555      17.41758325       31
Na       7.44587745       9.31563814      10.46027664        0
Na       7.44587745       5.30458053      10.46027664        1
Na      10.42632829       9.31563814       7.57050770        2
Na      10.42632829       5.30458053       7.57050770        3
Na      10.43682759       4.44223192       1.56024626        4
Na      10.43682759       0.43117430       1.56024626        5
Na       7.45637675       4.44223192       4.45001519        6
Na       7.45637675       0.43117430       4.45001519        7
Na       7.52047919       7.31010933       1.59100085        8
Na      10.50093003       7.31010933       4.41926060        9
Na      10.36222584       2.43670311      10.42952205       10
Na       7.38177501       2.43670311       7.60126230       11
V        8.00954829       7.31010933       6.56957151       12
V       10.98999913       7.31010933      11.46121283       13
V        9.87315674       2.43670311       5.45095138       14
V        6.89270591       2.43670311       0.55931007       15
S        7.32390138       9.14306058       7.52181429       16
S        7.32390138       5.47715809       7.52181429       17
S       10.30435222       9.14306058      10.50897005       18
S       10.30435222       5.47715809      10.50897005       19
S       10.55880366       4.26965435       4.49870860       20
S       10.55880366       0.60375187       4.49870860       21
S        7.57835282       4.26965435       1.51155285       22
S        7.57835282       0.60375187       1.51155285       23
S        7.43009232       7.31010933       4.44740740       24
S       10.41054316       7.31010933       1.56285405       25
S       10.45261272       2.43670311       7.57311549       26
S        7.47216188       2.43670311      10.45766885       27
O        6.69575946       7.31010933      11.40732180       28
O        9.67621030       7.31010933       6.62346254       29
O       11.18694558       2.43670311       0.61320109       30
O        8.20649474       2.43670311       5.39706036       31
Na       7.44587745       9.31563814      22.48079953        0
Na       7.44587745       5.30458053      22.48079953        1
Na      10.42632829       9.31563814      19.59103059        2
Na      10.42632829       5.30458053      19.59103059        3
Na      10.43682759       4.44223192      13.58076915        4
Na      10.43682759       0.43117430      13.58076915        5
Na       7.45637675       4.44223192      16.47053808        6
Na       7.45637675       0.43117430      16.47053808        7
Na       7.52047919       7.31010933      13.61152374        8
Na      10.50093003       7.31010933      16.43978349        9
Na      10.36222584       2.43670311      22.45004494       10
Na       7.38177501       2.43670311      19.62178519       11
V        8.00954829       7.31010933      18.59009440       12
V       10.98999913       7.31010933      23.48173572       13
V        9.87315674       2.43670311      17.47147427       14
V        6.89270591       2.43670311      12.57983296       15
S        7.32390138       9.14306058      19.54233718       16
S        7.32390138       5.47715809      19.54233718       17
S       10.30435222       9.14306058      22.52949294       18
S       10.30435222       5.47715809      22.52949294       19
S       10.55880366       4.26965435      16.51923149       20
S       10.55880366       0.60375187      16.51923149       21
S        7.57835282       4.26965435      13.53207574       22
S        7.57835282       0.60375187      13.53207574       23
S        7.43009232       7.31010933      16.46793029       24
S       10.41054316       7.31010933      13.58337694       25
S       10.45261272       2.43670311      19.59363838       26
S        7.47216188       2.43670311      22.47819174       27
O        6.69575946       7.31010933      23.42784469       28
O        9.67621030       7.31010933      18.64398543       29
O       11.18694558       2.43670311      12.63372398       30
O        8.20649474       2.43670311      17.41758325       31
Na       7.44587745      19.06245058      10.46027664        0
Na       7.44587745      15.05139297      10.46027664        1
Na      10.42632829      19.06245058       7.57050770        2
Na      10.42632829      15.05139297       7.57050770        3
Na      10.43682759      14.18904436       1.56024626        4
Na      10.43682759      10.17798674       1.56024626        5
Na       7.45637675      14.18904436       4.45001519        6
Na       7.45637675      10.17798674       4.45001519        7
Na       7.52047919      17.05692177       1.59100085        8
Na      10.50093003      17.05692177       4.41926060        9
Na      10.36222584      12.18351555      10.42952205       10
Na       7.38177501      12.18351555       7.60126230       11
V        8.00954829      17.05692177       6.56957151       12
V       10.98999913      17.05692177      11.46121283       13
V        9.87315674      12.18351555       5.45095138       14
V        6.89270591      12.18351555       0.55931007       15
S        7.32390138      18.88987302       7.52181429       16
S        7.32390138      15.22397053       7.52181429       17
S       10.30435222      18.88987302      10.50897005       18
S       10.30435222      15.22397053      10.50897005       19
S       10.55880366      14.01646679       4.49870860       20
S       10.55880366      10.35056431       4.49870860       21
S        7.57835282      14.01646679       1.51155285       22
S        7.57835282      10.35056431       1.51155285       23
S        7.43009232      17.05692177       4.44740740       24
S       10.41054316      17.05692177       1.56285405       25
S       10.45261272      12.18351555       7.57311549       26
S        7.47216188      12.18351555      10.45766885       27
O        6.69575946      17.05692177      11.40732180       28
O        9.67621030      17.05692177       6.62346254       29
O       11.18694558      12.18351555       0.61320109       30
O        8.20649474      12.18351555       5.39706036       31
Na       7.44587745      19.06245058      22.48079953        0
Na       7.44587745      15.05139297      22.48079953        1
Na      10.42632829      19.06245058      19.59103059        2
Na      10.42632829      15.05139297      19.59103059        3
Na      10.43682759      14.18904436      13.58076915        4
Na      10.43682759      10.17798674      13.58076915        5
Na       7.45637675      14.18904436      16.47053808        6
Na       7.45637675      10.17798674      16.47053808        7
Na       7.52047919      17.05692177      13.61152374        8
Na      10.50093003      17.05692177      16.43978349        9
Na      10.36222584      12.18351555      22.45004494       10
Na       7.38177501      12.18351555      19.62178519       11
V        8.00954829      17.05692177      18.59009440       12
V       10.98999913      17.05692177      23.48173572       13
V        9.87315674      12.18351555      17.47147427       14
V        6.89270591      12.18351555      12.57983296       15
S        7.32390138      18.88987302      19.54233718       16
S        7.32390138      15.22397053      19.54233718       17
S       10.30435222      18.88987302      22.52949294       18
S       10.30435222      15.22397053      22.52949294       19
S       10.55880366      14.01646679      16.51923149       20
S       10.55880366      10.35056431      16.51923149       21
S        7.57835282      14.01646679      13.53207574       22
S        7.57835282      10.35056431      13.53207574       23
S        7.43009232      17.05692177      16.46793029       24
S       10.41054316      17.05692177      13.58337694       25
S       10.45261272      12.18351555      19.59363838       26
S        7.47216188      12.18351555      22.47819174       27
O        6.69575946      17.05692177      23.42784469       28
O        9.67621030      17.05692177      18.64398543       29
O       11.18694558      12.18351555      12.63372398       30
O        8.20649474      12.18351555      17.41758325       31
