96
Lattice="12.132767788568918 0.0 0.0 -2.0318565432062874 11.961421871966781 0.0 -7.909812309310776 6.679499557746792 14.319514924645482" Properties=species:S:1:pos:R:3:spacegroup_kinds:I:1 pbc="T T T"
Na       3.53077343       2.14121502       2.04147624        0
Na      -2.43522397       7.17924569       5.11828123        1
Na       0.54777473       4.66023036       3.57987873        2
Na       0.00000000       0.00000000       0.00000000        3
S        0.46560603       6.73921891       5.92022827        4
S       -1.51561382       4.39307351       5.92022827        5
S        2.61116328       4.92738720       1.23952919        6
S        0.62994344       2.58124181       1.23952919        7
S        2.57694848       2.94667957       4.50010435        8
S       -1.48139901       6.37378114       2.65965311        9
N       -0.66753808       5.68651026       6.44053938       10
N        1.76308755       3.63395046       0.71921808       11
Na      -0.42413272       5.48096480       9.20123370        0
Na      -6.39013012      10.51899547      12.27803869        1
Na      -3.40713142       7.99998014      10.73963619        2
Na      -3.95490615       3.33974978       7.15975746        3
S       -3.48930012      10.07896869      13.07998573        4
S       -5.47051997       7.73282329      13.07998573        5
S       -1.34374287       8.26713698       8.39928665        6
S       -3.32496271       5.92099159       8.39928665        7
S       -1.37795767       6.28642935      11.65986181        8
S       -5.43630516       9.71353092       9.81941057        9
N       -4.62244423       9.02626004      13.60029684       10
N       -2.19181860       6.97370024       7.87897554       11
Na       2.51484516       8.12192596       2.04147624        0
Na      -3.45115224      13.15995663       5.11828123        1
Na      -0.46815354      10.64094130       3.57987873        2
Na      -1.01592827       5.98071094       0.00000000        3
S       -0.55032224      12.71992985       5.92022827        4
S       -2.53154209      10.37378445       5.92022827        5
S        1.59523501      10.90809814       1.23952919        6
S       -0.38598483       8.56195275       1.23952919        7
S        1.56102021       8.92739051       4.50010435        8
S       -2.49732728      12.35449208       2.65965311        9
N       -1.68346635      11.66722120       6.44053938       10
N        0.74715928       9.61466140       0.71921808       11
Na      -1.44006100      11.46167573       9.20123370        0
Na      -7.40605840      16.49970640      12.27803869        1
Na      -4.42305970      13.98069107      10.73963619        2
Na      -4.97083443       9.32046071       7.15975746        3
S       -4.50522840      16.05967962      13.07998573        4
S       -6.48644825      13.71353422      13.07998573        5
S       -2.35967115      14.24784791       8.39928665        6
S       -4.34089099      11.90170252       8.39928665        7
S       -2.39388595      12.26714028      11.65986181        8
S       -6.45223344      15.69424185       9.81941057        9
N       -5.63837251      15.00697097      13.60029684       10
N       -3.20774688      12.95441117       7.87897554       11
Na       9.59715732       2.14121502       2.04147624        0
Na       3.63115992       7.17924569       5.11828123        1
Na       6.61415862       4.66023036       3.57987873        2
Na       6.06638389       0.00000000       0.00000000        3
S        6.53198992       6.73921891       5.92022827        4
S        4.55077007       4.39307351       5.92022827        5
S        8.67754717       4.92738720       1.23952919        6
S        6.69632733       2.58124181       1.23952919        7
S        8.64333237       2.94667957       4.50010435        8
S        4.58498488       6.37378114       2.65965311        9
N        5.39884581       5.68651026       6.44053938       10
N        7.82947144       3.63395046       0.71921808       11
Na       5.64225117       5.48096480       9.20123370        0
Na      -0.32374623      10.51899547      12.27803869        1
Na       2.65925247       7.99998014      10.73963619        2
Na       2.11147774       3.33974978       7.15975746        3
S        2.57708377      10.07896869      13.07998573        4
S        0.59586392       7.73282329      13.07998573        5
S        4.72264102       8.26713698       8.39928665        6
S        2.74142118       5.92099159       8.39928665        7
S        4.68842622       6.28642935      11.65986181        8
S        0.63007873       9.71353092       9.81941057        9
N        1.44393966       9.02626004      13.60029684       10
N        3.87456529       6.97370024       7.87897554       11
Na       8.58122905       8.12192596       2.04147624        0
Na       2.61523165      13.15995663       5.11828123        1
Na       5.59823035      10.64094130       3.57987873        2
Na       5.05045562       5.98071094       0.00000000        3
S        5.51606165      12.71992985       5.92022827        4
S        3.53484180      10.37378445       5.92022827        5
S        7.66161890      10.90809814       1.23952919        6
S        5.68039906       8.56195275       1.23952919        7
S        7.62740410       8.92739051       4.50010435        8
S        3.56905661      12.35449208       2.65965311        9
N        4.38291754      11.66722120       6.44053938       10
N        6.81354317       9.61466140       0.71921808       11
Na       4.62632290      11.46167573       9.20123370        0
Na      -1.33967450      16.49970640      12.27803869        1
Na       1.64332420      13.98069107      10.73963619        2
Na       1.09554947       9.32046071       7.15975746        3
S        1.56115550      16.05967962      13.07998573        4
S       -0.42006435      13.71353422      13.07998573        5
S        3.70671275      14.24784791       8.39928665        6
S        1.72549291      11.90170252       8.39928665        7
S        3.67249795      12.26714028      11.65986181        8
S       -0.38584954      15.69424185       9.81941057        9
N        0.42801139      15.00697097      13.60029684       10
N        2.85863702      12.95441117       7.87897554       11
