256
Lattice="15.120746576527685 0.0 0.0 7.560373288263844 13.094950659459556 0.0 7.560373288263844 4.364983553153186 12.34603788080947" Properties=species:S:1:pos:R:3:spacegroup_kinds:I:1 pbc="T T T"
Sc       7.56037329       4.36498355       3.08650947        0
Sc      11.34055993       6.54747533       4.62976421        1
Ti       0.00000000       0.00000000       0.00000000        2
Ti       3.78018664       2.18249178       1.54325474        3
O       11.34055993       3.69396329       4.59852387        4
O       11.34055993       5.56685098       1.94986070        5
O        9.18234161       2.44791536       1.73093755        6
O        5.93840497       2.44791536       1.73093755        7
O        8.86934602       7.97423135       4.59852387        8
O       13.81177384       7.97423135       4.59852387        9
O       13.81177384       6.99360700       5.98533612       10
O        8.86934602       6.99360700       5.98533612       11
O        6.71112769       6.72818342       1.73093755       12
O        6.71112769       3.87467138       5.76641297       13
O        8.40961888       3.87467138       5.76641297       14
O        8.40961888       6.72818342       1.73093755       15
O       12.96252825       8.46454352       5.98533612       16
O        9.71859161       8.46454352       5.98533612       17
O        7.56037329       5.34560790       5.76641297       18
O        7.56037329       7.21849559       3.11774980       19
O       10.49131434       7.03778750       1.94986070       20
O       10.49131434       4.18427547       5.98533612       21
O       12.18980553       4.18427547       5.98533612       22
O       12.18980553       7.03778750       1.94986070       23
O        5.08915938       3.91885188       1.73093755       24
O       10.03158720       3.91885188       1.73093755       25
O       10.03158720       2.93822754       3.11774980       26
O        5.08915938       2.93822754       3.11774980       27
O        7.56037329       4.36498355       0.77162737       28
O        7.56037329       2.18249178       3.85813684       29
O        9.45046661       5.45622944       3.85813684       30
O        5.67027997       5.45622944       3.85813684       31
Sc      11.34055993       6.54747533       9.25952841        0
Sc      15.12074657       8.72996711      10.80278315        1
Ti       3.78018664       2.18249178       6.17301894        2
Ti       7.56037328       4.36498356       7.71627368        3
O       15.12074657       5.87645507      10.77154281        4
O       15.12074657       7.74934276       8.12287964        5
O       12.96252825       4.63040714       7.90395649        6
O        9.71859161       4.63040714       7.90395649        7
O       12.64953266      10.15672313      10.77154281        8
O       17.59196048      10.15672313      10.77154281        9
O       17.59196048       9.17609878      12.15835506       10
O       12.64953266       9.17609878      12.15835506       11
O       10.49131433       8.91067520       7.90395649       12
O       10.49131433       6.05716316      11.93943191       13
O       12.18980552       6.05716316      11.93943191       14
O       12.18980552       8.91067520       7.90395649       15
O       16.74271489      10.64703530      12.15835506       16
O       13.49877825      10.64703530      12.15835506       17
O       11.34055993       7.52809968      11.93943191       18
O       11.34055993       9.40098737       9.29076874       19
O       14.27150098       9.22027928       8.12287964       20
O       14.27150098       6.36676725      12.15835506       21
O       15.96999217       6.36676725      12.15835506       22
O       15.96999217       9.22027928       8.12287964       23
O        8.86934602       6.10134366       7.90395649       24
O       13.81177384       6.10134366       7.90395649       25
O       13.81177384       5.12071932       9.29076874       26
O        8.86934602       5.12071932       9.29076874       27
O       11.34055993       6.54747533       6.94464631       28
O       11.34055993       4.36498356      10.03115578       29
O       13.23065325       7.63872122      10.03115578       30
O        9.45046661       7.63872122      10.03115578       31
Sc      11.34055993      10.91245888       3.08650947        0
Sc      15.12074657      13.09495066       4.62976421        1
Ti       3.78018664       6.54747533       0.00000000        2
Ti       7.56037328       8.72996711       1.54325474        3
O       15.12074657      10.24143862       4.59852387        4
O       15.12074657      12.11432631       1.94986070        5
O       12.96252825       8.99539069       1.73093755        6
O        9.71859161       8.99539069       1.73093755        7
O       12.64953266      14.52170668       4.59852387        8
O       17.59196048      14.52170668       4.59852387        9
O       17.59196048      13.54108233       5.98533612       10
O       12.64953266      13.54108233       5.98533612       11
O       10.49131433      13.27565875       1.73093755       12
O       10.49131433      10.42214671       5.76641297       13
O       12.18980552      10.42214671       5.76641297       14
O       12.18980552      13.27565875       1.73093755       15
O       16.74271489      15.01201885       5.98533612       16
O       13.49877825      15.01201885       5.98533612       17
O       11.34055993      11.89308323       5.76641297       18
O       11.34055993      13.76597092       3.11774980       19
O       14.27150098      13.58526283       1.94986070       20
O       14.27150098      10.73175080       5.98533612       21
O       15.96999217      10.73175080       5.98533612       22
O       15.96999217      13.58526283       1.94986070       23
O        8.86934602      10.46632721       1.73093755       24
O       13.81177384      10.46632721       1.73093755       25
O       13.81177384       9.48570287       3.11774980       26
O        8.86934602       9.48570287       3.11774980       27
O       11.34055993      10.91245888       0.77162737       28
O       11.34055993       8.72996711       3.85813684       29
O       13.23065325      12.00370477       3.85813684       30
O        9.45046661      12.00370477       3.85813684       31
Sc      15.12074658      13.09495066       9.25952841        0
Sc      18.90093322      15.27744244      10.80278315        1
Ti       7.56037329       8.72996711       6.17301894        2
Ti      11.34055993      10.91245889       7.71627368        3
O       18.90093322      12.42393040      10.77154281        4
O       18.90093322      14.29681809       8.12287964        5
O       16.74271490      11.17788247       7.90395649        6
O       13.49877826      11.17788247       7.90395649        7
O       16.42971931      16.70419846      10.77154281        8
O       21.37214713      16.70419846      10.77154281        9
O       21.37214713      15.72357411      12.15835506       10
O       16.42971931      15.72357411      12.15835506       11
O       14.27150098      15.45815053       7.90395649       12
O       14.27150098      12.60463849      11.93943191       13
O       15.96999217      12.60463849      11.93943191       14
O       15.96999217      15.45815053       7.90395649       15
O       20.52290154      17.19451063      12.15835506       16
O       17.27896490      17.19451063      12.15835506       17
O       15.12074658      14.07557501      11.93943191       18
O       15.12074658      15.94846270       9.29076874       19
O       18.05168763      15.76775461       8.12287964       20
O       18.05168763      12.91424258      12.15835506       21
O       19.75017882      12.91424258      12.15835506       22
O       19.75017882      15.76775461       8.12287964       23
O       12.64953267      12.64881899       7.90395649       24
O       17.59196049      12.64881899       7.90395649       25
O       17.59196049      11.66819465       9.29076874       26
O       12.64953267      11.66819465       9.29076874       27
O       15.12074658      13.09495066       6.94464631       28
O       15.12074658      10.91245889      10.03115578       29
O       17.01083990      14.18619655      10.03115578       30
O       13.23065326      14.18619655      10.03115578       31
Sc      15.12074658       4.36498355       3.08650947        0
Sc      18.90093322       6.54747533       4.62976421        1
Ti       7.56037329       0.00000000       0.00000000        2
Ti      11.34055993       2.18249178       1.54325474        3
O       18.90093322       3.69396329       4.59852387        4
O       18.90093322       5.56685098       1.94986070        5
O       16.74271490       2.44791536       1.73093755        6
O       13.49877826       2.44791536       1.73093755        7
O       16.42971931       7.97423135       4.59852387        8
O       21.37214713       7.97423135       4.59852387        9
O       21.37214713       6.99360700       5.98533612       10
O       16.42971931       6.99360700       5.98533612       11
O       14.27150098       6.72818342       1.73093755       12
O       14.27150098       3.87467138       5.76641297       13
O       15.96999217       3.87467138       5.76641297       14
O       15.96999217       6.72818342       1.73093755       15
O       20.52290154       8.46454352       5.98533612       16
O       17.27896490       8.46454352       5.98533612       17
O       15.12074658       5.34560790       5.76641297       18
O       15.12074658       7.21849559       3.11774980       19
O       18.05168763       7.03778750       1.94986070       20
O       18.05168763       4.18427547       5.98533612       21
O       19.75017882       4.18427547       5.98533612       22
O       19.75017882       7.03778750       1.94986070       23
O       12.64953267       3.91885188       1.73093755       24
O       17.59196049       3.91885188       1.73093755       25
O       17.59196049       2.93822754       3.11774980       26
O       12.64953267       2.93822754       3.11774980       27
O       15.12074658       4.36498355       0.77162737       28
O       15.12074658       2.18249178       3.85813684       29
O       17.01083990       5.45622944       3.85813684       30
O       13.23065326       5.45622944       3.85813684       31
Sc      18.90093322       6.54747533       9.25952841        0
Sc      22.68111986       8.72996711      10.80278315        1
Ti      11.34055993       2.18249178       6.17301894        2
Ti      15.12074657       4.36498356       7.71627368        3
O       22.68111986       5.87645507      10.77154281        4
O       22.68111986       7.74934276       8.12287964        5
O       20.52290154       4.63040714       7.90395649        6
O       17.27896490       4.63040714       7.90395649        7
O       20.20990595      10.15672313      10.77154281        8
O       25.15233377      10.15672313      10.77154281        9
O       25.15233377       9.17609878      12.15835506       10
O       20.20990595       9.17609878      12.15835506       11
O       18.05168762       8.91067520       7.90395649       12
O       18.05168762       6.05716316      11.93943191       13
O       19.75017881       6.05716316      11.93943191       14
O       19.75017881       8.91067520       7.90395649       15
O       24.30308818      10.64703530      12.15835506       16
O       21.05915154      10.64703530      12.15835506       17
O       18.90093322       7.52809968      11.93943191       18
O       18.90093322       9.40098737       9.29076874       19
O       21.83187427       9.22027928       8.12287964       20
O       21.83187427       6.36676725      12.15835506       21
O       23.53036546       6.36676725      12.15835506       22
O       23.53036546       9.22027928       8.12287964       23
O       16.42971931       6.10134366       7.90395649       24
O       21.37214713       6.10134366       7.90395649       25
O       21.37214713       5.12071932       9.29076874       26
O       16.42971931       5.12071932       9.29076874       27
O       18.90093322       6.54747533       6.94464631       28
O       18.90093322       4.36498356      10.03115578       29
O       20.79102654       7.63872122      10.03115578       30
O       17.01083990       7.63872122      10.03115578       31
Sc      18.90093322      10.91245888       3.08650947        0
Sc      22.68111986      13.09495066       4.62976421        1
Ti      11.34055993       6.54747533       0.00000000        2
Ti      15.12074657       8.72996711       1.54325474        3
O       22.68111986      10.24143862       4.59852387        4
O       22.68111986      12.11432631       1.94986070        5
O       20.52290154       8.99539069       1.73093755        6
O       17.27896490       8.99539069       1.73093755        7
O       20.20990595      14.52170668       4.59852387        8
O       25.15233377      14.52170668       4.59852387        9
O       25.15233377      13.54108233       5.98533612       10
O       20.20990595      13.54108233       5.98533612       11
O       18.05168762      13.27565875       1.73093755       12
O       18.05168762      10.42214671       5.76641297       13
O       19.75017881      10.42214671       5.76641297       14
O       19.75017881      13.27565875       1.73093755       15
O       24.30308818      15.01201885       5.98533612       16
O       21.05915154      15.01201885       5.98533612       17
O       18.90093322      11.89308323       5.76641297       18
O       18.90093322      13.76597092       3.11774980       19
O       21.83187427      13.58526283       1.94986070       20
O       21.83187427      10.73175080       5.98533612       21
O       23.53036546      10.73175080       5.98533612       22
O       23.53036546      13.58526283       1.94986070       23
O       16.42971931      10.46632721       1.73093755       24
O       21.37214713      10.46632721       1.73093755       25
O       21.37214713       9.48570287       3.11774980       26
O       16.42971931       9.48570287       3.11774980       27
O       18.90093322      10.91245888       0.77162737       28
O       18.90093322       8.72996711       3.85813684       29
O       20.79102654      12.00370477       3.85813684       30
O       17.01083990      12.00370477       3.85813684       31
Sc      22.68111987      13.09495066       9.25952841        0
Sc      26.46130651      15.27744244      10.80278315        1
Ti      15.12074658       8.72996711       6.17301894        2
Ti      18.90093322      10.91245889       7.71627368        3
O       26.46130651      12.42393040      10.77154281        4
O       26.46130651      14.29681809       8.12287964        5
O       24.30308819      11.17788247       7.90395649        6
O       21.05915155      11.17788247       7.90395649        7
O       23.99009260      16.70419846      10.77154281        8
O       28.93252042      16.70419846      10.77154281        9
O       28.93252042      15.72357411      12.15835506       10
O       23.99009260      15.72357411      12.15835506       11
O       21.83187427      15.45815053       7.90395649       12
O       21.83187427      12.60463849      11.93943191       13
O       23.53036546      12.60463849      11.93943191       14
O       23.53036546      15.45815053       7.90395649       15
O       28.08327483      17.19451063      12.15835506       16
O       24.83933819      17.19451063      12.15835506       17
O       22.68111987      14.07557501      11.93943191       18
O       22.68111987      15.94846270       9.29076874       19
O       25.61206092      15.76775461       8.12287964       20
O       25.61206092      12.91424258      12.15835506       21
O       27.31055211      12.91424258      12.15835506       22
O       27.31055211      15.76775461       8.12287964       23
O       20.20990596      12.64881899       7.90395649       24
O       25.15233378      12.64881899       7.90395649       25
O       25.15233378      11.66819465       9.29076874       26
O       20.20990596      11.66819465       9.29076874       27
O       22.68111987      13.09495066       6.94464631       28
O       22.68111987      10.91245889      10.03115578       29
O       24.57121319      14.18619655      10.03115578       30
O       20.79102655      14.18619655      10.03115578       31
