320
Lattice="17.15865118155211 0.0 0.0 -5.7195503938506995 16.177331475320084 0.0 -5.7195503938506995 -8.088665737660035 14.00998002306879" Properties=species:S:1:pos:R:3:spacegroup_kinds:I:1 pbc="T T T"
Sc       1.42972012       2.02192959       3.50208478        0
Sc       4.28949532      -0.00023685       0.00041023        1
Sc      -1.43005507      -2.02169274       3.50249501        2
Sc      -1.42938517       4.04433287       0.00000000        3
Sc      -1.63596518       6.78614481       1.75124750        4
Sc      -1.22381002      -2.16788529       6.75259755        5
Sc       4.08358522       0.14571885       3.75488747        6
Sc       6.94336041       1.15680207       1.49885504        7
Sc       1.63596518       4.90969723       2.00363996        8
Sc      -1.22381002       1.30252093       5.25374251        9
Sc       4.08376080       2.74206026       1.75124750       10
Sc      -1.22398560       3.89873817       3.25031759       11
Sc       4.08376080       6.21209400       0.25217741       12
Sc       1.22398560      -0.86548852       5.00156510       13
Sc      -4.08376080       2.88765495       5.50591992       14
Sc       4.49556479      -2.74206026       5.25374251       15
O        3.68358540       4.77796180       5.09036073       16
O        3.27684378      -1.00092775       5.41712429       17
O        0.67604754       4.14605122       6.68301666       18
O        0.82381020       4.04156724       3.82446836       19
O        3.27684378       1.87559593       6.93209402       20
O       -2.18372766       5.73680302       3.57539100       21
O        3.53582273       2.25014436       3.75157236       22
O        0.94284887      -1.98284554       6.75591266       23
O        6.13661898       3.16966469       1.66076172       24
O        3.80262406       4.82004832       1.84173329       25
O       -2.03596499       3.31346957       5.09515094       26
O        0.94284887       1.20713009       5.41233408       27
O       -0.41702523       2.16877974       0.07286954       28
O        5.04352876      -1.69241501       3.42962547       29
O       -0.82386643      -0.73360282       1.91465312       30
O       -0.41702523       5.04521631       1.58784188       31
O        2.18375356      -0.10176884       0.32200788       32
O        2.03590876       0.00277322       3.18048712       33
O        4.89568396       0.73082960       1.90984977       34
O        1.91691330       2.83713853       1.59264524       35
O       -0.67602164       1.79418385       3.25335666       36
O        1.91691330       6.02720127       0.24913834       37
O       -3.27680042       0.87466969       5.34427859       38
O       -0.94286190      -0.77567407       5.16320643       39
Sc      -1.43005508      -2.02240328      10.50707479        0
Sc       1.42972012      -4.04456972       7.00540024        1
Sc      -4.28983027      -6.06602561      10.50748502        2
Sc      -4.28916037       0.00000000       7.00499001        3
Sc      -4.49574038       2.74181194       8.75623751        4
Sc      -4.08358522      -6.21221816      13.75758756        5
Sc       1.22381002      -3.89861402      10.75987748        6
Sc       4.08358521      -2.88753080       8.50384505        7
Sc      -1.22381002       0.86536436       9.00862997        8
Sc      -4.08358522      -2.74181194      12.25873252        9
Sc       1.22398560      -1.30227261       8.75623751       10
Sc      -4.08376080      -0.14559470      10.25530760       11
Sc       1.22398560       2.16776113       7.25716742       12
Sc      -1.63578960      -4.90982139      12.00655511       13
Sc      -6.94353600      -1.15667792      12.51090993       14
Sc       1.63578959      -6.78639313      12.25873252       15
O        0.82381020       0.73362893      12.09535074       16
O        0.41706858      -5.04526062      12.42211430       17
O       -2.18372766       0.10171835      13.68800667       18
O       -2.03596500      -0.00276563      10.82945837       19
O        0.41706858      -2.16873694      13.93708403       20
O       -5.04350286       1.69247015      10.58038101       21
O        0.67604753      -1.79418851      10.75656237       22
O       -1.91692633      -6.02717841      13.76090267       23
O        3.27684378      -0.87466818       8.66575173       24
O        0.94284886       0.77571545       8.84672330       25
O       -4.89574019      -0.73086330      12.10014095       26
O       -1.91692633      -2.83720278      12.41732409       27
O       -3.27680043      -1.87555313       7.07785955       28
O        2.18375356      -5.73674788      10.43461548       29
O       -3.68364163      -4.77793569       8.91964313       30
O       -3.27680043       1.00088344       8.59283189       31
O       -0.67602164      -4.14610171       7.32699789       32
O       -0.82386644      -4.04155965      10.18547713       33
O        2.03590876      -3.31350327       8.91483978       34
O       -0.94286190      -1.20719434       8.59763525       35
O       -3.53579684      -2.25014902      10.25834667       36
O       -0.94286190       1.98286840       7.25412835       37
O       -6.13657562      -3.16966318      12.34926860       38
O       -3.80263710      -4.82000694      12.16819644       39
Sc      -1.43005508      10.11059533       3.50208478        0
Sc       1.42972012       8.08842889       0.00041023        1
Sc      -4.28983027       6.06697300       3.50249501        2
Sc      -4.28916037      12.13299861       0.00000000        3
Sc      -4.49574038      14.87481055       1.75124750        4
Sc      -4.08358522       5.92078045       6.75259755        5
Sc       1.22381002       8.23438459       3.75488747        6
Sc       4.08358521       9.24546781       1.49885504        7
Sc      -1.22381002      12.99836297       2.00363996        8
Sc      -4.08358522       9.39118667       5.25374251        9
Sc       1.22398560      10.83072600       1.75124750       10
Sc      -4.08376080      11.98740391       3.25031759       11
Sc       1.22398560      14.30075974       0.25217741       12
Sc      -1.63578960       7.22317722       5.00156510       13
Sc      -6.94353600      10.97632069       5.50591992       14
Sc       1.63578959       5.34660548       5.25374251       15
O        0.82381020      12.86662754       5.09036073       16
O        0.41706858       7.08773799       5.41712429       17
O       -2.18372766      12.23471696       6.68301666       18
O       -2.03596500      12.13023298       3.82446836       19
O        0.41706858       9.96426167       6.93209402       20
O       -5.04350286      13.82546876       3.57539100       21
O        0.67604753      10.33881010       3.75157236       22
O       -1.91692633       6.10582020       6.75591266       23
O        3.27684378      11.25833043       1.66076172       24
O        0.94284886      12.90871406       1.84173329       25
O       -4.89574019      11.40213531       5.09515094       26
O       -1.91692633       9.29579583       5.41233408       27
O       -3.27680043      10.25744548       0.07286954       28
O        2.18375356       6.39625073       3.42962547       29
O       -3.68364163       7.35506292       1.91465312       30
O       -3.27680043      13.13388205       1.58784188       31
O       -0.67602164       7.98689690       0.32200788       32
O       -0.82386644       8.09143896       3.18048712       33
O        2.03590876       8.81949534       1.90984977       34
O       -0.94286190      10.92580427       1.59264524       35
O       -3.53579684       9.88284959       3.25335666       36
O       -0.94286190      14.11586701       0.24913834       37
O       -6.13657562       8.96333543       5.34427859       38
O       -3.80263710       7.31299167       5.16320643       39
Sc      -4.28983027       6.06626246      10.50707479        0
Sc      -1.43005507       4.04409602       7.00540024        1
Sc      -7.14960546       2.02264013      10.50748502        2
Sc      -7.14893556       8.08866574       7.00499001        3
Sc      -7.35551557      10.83047768       8.75623751        4
Sc      -6.94336041       1.87644758      13.75758756        5
Sc      -1.63596517       4.19005172      10.75987748        6
Sc       1.22381002       5.20113494       8.50384505        7
Sc      -4.08358521       8.95403010       9.00862997        8
Sc      -6.94336041       5.34685380      12.25873252        9
Sc      -1.63578959       6.78639313       8.75623751       10
Sc      -6.94353599       7.94307104      10.25530760       11
Sc      -1.63578959      10.25642687       7.25716742       12
Sc      -4.49556479       3.17884435      12.00655511       13
Sc      -9.80331119       6.93198782      12.51090993       14
Sc      -1.22398560       1.30227261      12.25873252       15
O       -2.03596499       8.82229467      12.09535074       16
O       -2.44270661       3.04340512      12.42211430       17
O       -5.04350285       8.19038409      13.68800667       18
O       -4.89574019       8.08590011      10.82945837       19
O       -2.44270661       5.91992880      13.93708403       20
O       -7.90327805       9.78113589      10.58038101       21
O       -2.18372766       6.29447723      10.75656237       22
O       -4.77670152       2.06148733      13.76090267       23
O        0.41706859       7.21399756       8.66575173       24
O       -1.91692633       8.86438119       8.84672330       25
O       -7.75551538       7.35780244      12.10014095       26
O       -4.77670152       5.25146296      12.41732409       27
O       -6.13657562       6.21311261       7.07785955       28
O       -0.67602163       2.35191786      10.43461548       29
O       -6.54341682       3.31073005       8.91964313       30
O       -6.13657562       9.08954918       8.59283189       31
O       -3.53579683       3.94256403       7.32699789       32
O       -3.68364163       4.04710609      10.18547713       33
O       -0.82386643       4.77516247       8.91483978       34
O       -3.80263709       6.88147140       8.59763525       35
O       -6.39557203       5.83851672      10.25834667       36
O       -3.80263709      10.07153414       7.25412835       37
O       -8.99635081       4.91900256      12.34926860       38
O       -6.66241229       3.26865880      12.16819644       39
Sc      10.00904571       2.02192959       3.50208478        0
Sc      12.86882091      -0.00023685       0.00041023        1
Sc       7.14927052      -2.02169274       3.50249501        2
Sc       7.14994042       4.04433287       0.00000000        3
Sc       6.94336041       6.78614481       1.75124750        4
Sc       7.35551557      -2.16788529       6.75259755        5
Sc      12.66291081       0.14571885       3.75488747        6
Sc      15.52268600       1.15680207       1.49885504        7
Sc      10.21529077       4.90969723       2.00363996        8
Sc       7.35551557       1.30252093       5.25374251        9
Sc      12.66308639       2.74206026       1.75124750       10
Sc       7.35533999       3.89873817       3.25031759       11
Sc      12.66308639       6.21209400       0.25217741       12
Sc       9.80331119      -0.86548852       5.00156510       13
Sc       4.49556479       2.88765495       5.50591992       14
Sc      13.07489038      -2.74206026       5.25374251       15
O       12.26291099       4.77796180       5.09036073       16
O       11.85616937      -1.00092775       5.41712429       17
O        9.25537313       4.14605122       6.68301666       18
O        9.40313579       4.04156724       3.82446836       19
O       11.85616937       1.87559593       6.93209402       20
O        6.39559793       5.73680302       3.57539100       21
O       12.11514832       2.25014436       3.75157236       22
O        9.52217446      -1.98284554       6.75591266       23
O       14.71594457       3.16966469       1.66076172       24
O       12.38194965       4.82004832       1.84173329       25
O        6.54336060       3.31346957       5.09515094       26
O        9.52217446       1.20713009       5.41233408       27
O        8.16230036       2.16877974       0.07286954       28
O       13.62285435      -1.69241501       3.42962547       29
O        7.75545916      -0.73360282       1.91465312       30
O        8.16230036       5.04521631       1.58784188       31
O       10.76307915      -0.10176884       0.32200788       32
O       10.61523435       0.00277322       3.18048712       33
O       13.47500955       0.73082960       1.90984977       34
O       10.49623889       2.83713853       1.59264524       35
O        7.90330395       1.79418385       3.25335666       36
O       10.49623889       6.02720127       0.24913834       37
O        5.30252517       0.87466969       5.34427859       38
O        7.63646369      -0.77567407       5.16320643       39
Sc       7.14927051      -2.02240328      10.50707479        0
Sc      10.00904571      -4.04456972       7.00540024        1
Sc       4.28949532      -6.06602561      10.50748502        2
Sc       4.29016522       0.00000000       7.00499001        3
Sc       4.08358521       2.74181194       8.75623751        4
Sc       4.49574037      -6.21221816      13.75758756        5
Sc       9.80313561      -3.89861402      10.75987748        6
Sc      12.66291080      -2.88753080       8.50384505        7
Sc       7.35551557       0.86536436       9.00862997        8
Sc       4.49574037      -2.74181194      12.25873252        9
Sc       9.80331119      -1.30227261       8.75623751       10
Sc       4.49556479      -0.14559470      10.25530760       11
Sc       9.80331119       2.16776113       7.25716742       12
Sc       6.94353599      -4.90982139      12.00655511       13
Sc       1.63578959      -1.15667792      12.51090993       14
Sc      10.21511518      -6.78639313      12.25873252       15
O        9.40313579       0.73362893      12.09535074       16
O        8.99639417      -5.04526062      12.42211430       17
O        6.39559793       0.10171835      13.68800667       18
O        6.54336059      -0.00276563      10.82945837       19
O        8.99639417      -2.16873694      13.93708403       20
O        3.53582273       1.69247015      10.58038101       21
O        9.25537312      -1.79418851      10.75656237       22
O        6.66239926      -6.02717841      13.76090267       23
O       11.85616937      -0.87466818       8.66575173       24
O        9.52217445       0.77571545       8.84672330       25
O        3.68358540      -0.73086330      12.10014095       26
O        6.66239926      -2.83720278      12.41732409       27
O        5.30252516      -1.87555313       7.07785955       28
O       10.76307915      -5.73674788      10.43461548       29
O        4.89568396      -4.77793569       8.91964313       30
O        5.30252516       1.00088344       8.59283189       31
O        7.90330395      -4.14610171       7.32699789       32
O        7.75545915      -4.04155965      10.18547713       33
O       10.61523435      -3.31350327       8.91483978       34
O        7.63646369      -1.20719434       8.59763525       35
O        5.04352875      -2.25014902      10.25834667       36
O        7.63646369       1.98286840       7.25412835       37
O        2.44274997      -3.16966318      12.34926860       38
O        4.77668849      -4.82000694      12.16819644       39
Sc       7.14927051      10.11059533       3.50208478        0
Sc      10.00904571       8.08842889       0.00041023        1
Sc       4.28949532       6.06697300       3.50249501        2
Sc       4.29016522      12.13299861       0.00000000        3
Sc       4.08358521      14.87481055       1.75124750        4
Sc       4.49574037       5.92078045       6.75259755        5
Sc       9.80313561       8.23438459       3.75488747        6
Sc      12.66291080       9.24546781       1.49885504        7
Sc       7.35551557      12.99836297       2.00363996        8
Sc       4.49574037       9.39118667       5.25374251        9
Sc       9.80331119      10.83072600       1.75124750       10
Sc       4.49556479      11.98740391       3.25031759       11
Sc       9.80331119      14.30075974       0.25217741       12
Sc       6.94353599       7.22317722       5.00156510       13
Sc       1.63578959      10.97632069       5.50591992       14
Sc      10.21511518       5.34660548       5.25374251       15
O        9.40313579      12.86662754       5.09036073       16
O        8.99639417       7.08773799       5.41712429       17
O        6.39559793      12.23471696       6.68301666       18
O        6.54336059      12.13023298       3.82446836       19
O        8.99639417       9.96426167       6.93209402       20
O        3.53582273      13.82546876       3.57539100       21
O        9.25537312      10.33881010       3.75157236       22
O        6.66239926       6.10582020       6.75591266       23
O       11.85616937      11.25833043       1.66076172       24
O        9.52217445      12.90871406       1.84173329       25
O        3.68358540      11.40213531       5.09515094       26
O        6.66239926       9.29579583       5.41233408       27
O        5.30252516      10.25744548       0.07286954       28
O       10.76307915       6.39625073       3.42962547       29
O        4.89568396       7.35506292       1.91465312       30
O        5.30252516      13.13388205       1.58784188       31
O        7.90330395       7.98689690       0.32200788       32
O        7.75545915       8.09143896       3.18048712       33
O       10.61523435       8.81949534       1.90984977       34
O        7.63646369      10.92580427       1.59264524       35
O        5.04352875       9.88284959       3.25335666       36
O        7.63646369      14.11586701       0.24913834       37
O        2.44274997       8.96333543       5.34427859       38
O        4.77668849       7.31299167       5.16320643       39
Sc       4.28949532       6.06626246      10.50707479        0
Sc       7.14927052       4.04409602       7.00540024        1
Sc       1.42972013       2.02264013      10.50748502        2
Sc       1.43039003       8.08866574       7.00499001        3
Sc       1.22381002      10.83047768       8.75623751        4
Sc       1.63596518       1.87644758      13.75758756        5
Sc       6.94336042       4.19005172      10.75987748        6
Sc       9.80313561       5.20113494       8.50384505        7
Sc       4.49574038       8.95403010       9.00862997        8
Sc       1.63596518       5.34685380      12.25873252        9
Sc       6.94353600       6.78639313       8.75623751       10
Sc       1.63578960       7.94307104      10.25530760       11
Sc       6.94353600      10.25642687       7.25716742       12
Sc       4.08376080       3.17884435      12.00655511       13
Sc      -1.22398560       6.93198782      12.51090993       14
Sc       7.35533999       1.30227261      12.25873252       15
O        6.54336060       8.82229467      12.09535074       16
O        6.13661898       3.04340512      12.42211430       17
O        3.53582274       8.19038409      13.68800667       18
O        3.68358540       8.08590011      10.82945837       19
O        6.13661898       5.91992880      13.93708403       20
O        0.67604754       9.78113589      10.58038101       21
O        6.39559793       6.29447723      10.75656237       22
O        3.80262407       2.06148733      13.76090267       23
O        8.99639418       7.21399756       8.66575173       24
O        6.66239926       8.86438119       8.84672330       25
O        0.82381021       7.35780244      12.10014095       26
O        3.80262407       5.25146296      12.41732409       27
O        2.44274997       6.21311261       7.07785955       28
O        7.90330396       2.35191786      10.43461548       29
O        2.03590877       3.31073005       8.91964313       30
O        2.44274997       9.08954918       8.59283189       31
O        5.04352876       3.94256403       7.32699789       32
O        4.89568396       4.04710609      10.18547713       33
O        7.75545916       4.77516247       8.91483978       34
O        4.77668850       6.88147140       8.59763525       35
O        2.18375356       5.83851672      10.25834667       36
O        4.77668850      10.07153414       7.25412835       37
O       -0.41702522       4.91900256      12.34926860       38
O        1.91691330       3.26865880      12.16819644       39
