112
Lattice="15.134020891040459 0.0 0.0 -11.693053385950668 9.607866092101652 0.0 -9.47537461997323 -2.0265913112118237 11.625351254862666" Properties=species:S:1:pos:R:3:spacegroup_kinds:I:1 pbc="T T T"
Si      -2.02265696       3.78629191       4.50988206        0
Si      -3.66925158       1.66595028       2.89436725        1
Si       0.87541574       2.74837424       2.91830837        2
Si      -0.77117888       0.62803261       1.30279356        3
O        3.79377293       0.10390117       3.33037211        4
O       -2.63185729       2.40518062       3.90795409        5
O        0.54319202       3.97812048       1.90472154        6
O       -0.03591150       1.47546688       2.48230351        7
O        0.17917484       0.50029181       0.00000000        8
O       -5.11293216       2.39561051       2.90633781        9
O       -3.28115980       1.84919766       1.29017936       10
O       -8.08987231       3.57139313       5.18962232       11
O       -2.06639995       1.41414276       0.62305331       12
O       -6.87511246       3.13633824       4.52249626       13
Si      -6.76034427       2.77299625      10.32255769        0
Si      -8.40693889       0.65265462       8.70704288        1
Si      -3.86227157       1.73507858       8.73098400        2
Si      -5.50886619      -0.38526305       7.11546919        3
O       -0.94391438      -0.90939449       9.14304774        4
O       -7.36954460       1.39188496       9.72062972        5
O       -4.19449529       2.96482482       7.71739717        6
O       -4.77359881       0.46217122       8.29497914        7
O       -4.55851247      -0.51300385       5.81267563        8
O       -9.85061947       1.38231485       8.71901344        9
O       -8.01884711       0.83590200       7.10285499       10
O      -12.82755962       2.55809747      11.00229795       11
O       -6.80408726       0.40084710       6.43572894       12
O      -11.61279977       2.12304258      10.33517189       13
Si      -7.86918365       8.59022496       4.50988206        0
Si      -9.51577827       6.46988333       2.89436725        1
Si      -4.97111095       7.55230729       2.91830837        2
Si      -6.61770557       5.43196566       1.30279356        3
O       -2.05275376       4.90783422       3.33037211        4
O       -8.47838398       7.20911367       3.90795409        5
O       -5.30333467       8.78205353       1.90472154        6
O       -5.88243819       6.27939993       2.48230351        7
O       -5.66735185       5.30422486       0.00000000        8
O      -10.95945885       7.19954356       2.90633781        9
O       -9.12768649       6.65313071       1.29017936       10
O      -13.93639900       8.37532618       5.18962232       11
O       -7.91292664       6.21807581       0.62305331       12
O      -12.72163915       7.94027129       4.52249626       13
Si     -12.60687096       7.57692930      10.32255769        0
Si     -14.25346558       5.45658767       8.70704288        1
Si      -9.70879826       6.53901163       8.73098400        2
Si     -11.35539288       4.41867000       7.11546919        3
O       -6.79044107       3.89453856       9.14304774        4
O      -13.21607129       6.19581801       9.72062972        5
O      -10.04102198       7.76875787       7.71739717        6
O      -10.62012550       5.26610427       8.29497914        7
O      -10.40503916       4.29092920       5.81267563        8
O      -15.69714616       6.18624790       8.71901344        9
O      -13.86537380       5.63983505       7.10285499       10
O      -18.67408631       7.36203052      11.00229795       11
O      -12.65061395       5.20478015       6.43572894       12
O      -17.45932646       6.92697563      10.33517189       13
Si       5.54435349       3.78629191       4.50988206        0
Si       3.89775887       1.66595028       2.89436725        1
Si       8.44242619       2.74837424       2.91830837        2
Si       6.79583157       0.62803261       1.30279356        3
O       11.36078338       0.10390117       3.33037211        4
O        4.93515316       2.40518062       3.90795409        5
O        8.11020247       3.97812048       1.90472154        6
O        7.53109895       1.47546688       2.48230351        7
O        7.74618529       0.50029181       0.00000000        8
O        2.45407829       2.39561051       2.90633781        9
O        4.28585065       1.84919766       1.29017936       10
O       -0.52286186       3.57139313       5.18962232       11
O        5.50061050       1.41414276       0.62305331       12
O        0.69189799       3.13633824       4.52249626       13
Si       0.80666618       2.77299625      10.32255769        0
Si      -0.83992844       0.65265462       8.70704288        1
Si       3.70473888       1.73507858       8.73098400        2
Si       2.05814426      -0.38526305       7.11546919        3
O        6.62309607      -0.90939449       9.14304774        4
O        0.19746585       1.39188496       9.72062972        5
O        3.37251516       2.96482482       7.71739717        6
O        2.79341164       0.46217122       8.29497914        7
O        3.00849798      -0.51300385       5.81267563        8
O       -2.28360902       1.38231485       8.71901344        9
O       -0.45183666       0.83590200       7.10285499       10
O       -5.26054917       2.55809747      11.00229795       11
O        0.76292319       0.40084710       6.43572894       12
O       -4.04578932       2.12304258      10.33517189       13
Si      -0.30217321       8.59022496       4.50988206        0
Si      -1.94876783       6.46988333       2.89436725        1
Si       2.59589949       7.55230729       2.91830837        2
Si       0.94930487       5.43196566       1.30279356        3
O        5.51425668       4.90783422       3.33037211        4
O       -0.91137354       7.20911367       3.90795409        5
O        2.26367577       8.78205353       1.90472154        6
O        1.68457225       6.27939993       2.48230351        7
O        1.89965859       5.30422486       0.00000000        8
O       -3.39244841       7.19954356       2.90633781        9
O       -1.56067605       6.65313071       1.29017936       10
O       -6.36938856       8.37532618       5.18962232       11
O       -0.34591620       6.21807581       0.62305331       12
O       -5.15462871       7.94027129       4.52249626       13
Si      -5.03986052       7.57692930      10.32255769        0
Si      -6.68645514       5.45658767       8.70704288        1
Si      -2.14178782       6.53901163       8.73098400        2
Si      -3.78838244       4.41867000       7.11546919        3
O        0.77656937       3.89453856       9.14304774        4
O       -5.64906085       6.19581801       9.72062972        5
O       -2.47401154       7.76875787       7.71739717        6
O       -3.05311506       5.26610427       8.29497914        7
O       -2.83802872       4.29092920       5.81267563        8
O       -8.13013572       6.18624790       8.71901344        9
O       -6.29836336       5.63983505       7.10285499       10
O      -11.10707587       7.36203052      11.00229795       11
O       -5.08360351       5.20478015       6.43572894       12
O       -9.89231602       6.92697563      10.33517189       13
