160
Lattice="17.9415050172 0.0 0.0 -8.970752508600002 15.537799126999996 0.0 0.0 0.0 11.3634741984" Properties=species:S:1:pos:R:3:spacegroup_kinds:I:1 pbc="T T T"
Sc       6.25324438       3.61031233       0.23122496        0
Sc       0.00000000       7.22062466       3.07209351        1
Sc       1.76786813       4.15858724       3.07209351        2
Sc       2.71750812       3.61031233       0.23122496        3
Sc       4.48537625       0.54827491       0.23122496        4
Sc      -1.76786813       4.15858724       3.07209351        5
Sc       1.65830450       0.95742255       1.74472053        6
Sc      -0.00000000       1.91484510       4.58558908        7
Sc      -2.82707175       6.81147701       4.58558908        8
Sc       7.31244800       0.95742255       1.74472053        9
Sc       4.48537625       5.85405446       1.74472053       10
Sc       2.82707175       6.81147701       4.58558908       11
Sc       0.00000000       5.17926638       5.59441682       12
Sc       4.48537625       2.58963319       2.75354827       13
P        1.90748366       6.28055258       1.40538616       14
P        4.48537625       4.79220560       4.24625471       15
P        6.39285991       1.48834698       4.24625471       16
P       -1.90748366       6.28055258       1.40538616       17
P       -0.00000000       2.97669397       1.40538616       18
P        2.57789259       1.48834698       4.24625471       19
Sc       6.25324438       3.61031233       5.91296206        0
Sc       0.00000000       7.22062466       8.75383061        1
Sc       1.76786813       4.15858724       8.75383061        2
Sc       2.71750812       3.61031233       5.91296206        3
Sc       4.48537625       0.54827491       5.91296206        4
Sc      -1.76786813       4.15858724       8.75383061        5
Sc       1.65830450       0.95742255       7.42645763        6
Sc      -0.00000000       1.91484510      10.26732618        7
Sc      -2.82707175       6.81147701      10.26732618        8
Sc       7.31244800       0.95742255       7.42645763        9
Sc       4.48537625       5.85405446       7.42645763       10
Sc       2.82707175       6.81147701      10.26732618       11
Sc       0.00000000       5.17926638      11.27615392       12
Sc       4.48537625       2.58963319       8.43528537       13
P        1.90748366       6.28055258       7.08712326       14
P        4.48537625       4.79220560       9.92799181       15
P        6.39285991       1.48834698       9.92799181       16
P       -1.90748366       6.28055258       7.08712326       17
P       -0.00000000       2.97669397       7.08712326       18
P        2.57789259       1.48834698       9.92799181       19
Sc       1.76786813      11.37921189       0.23122496        0
Sc      -4.48537625      14.98952422       3.07209351        1
Sc      -2.71750812      11.92748680       3.07209351        2
Sc      -1.76786813      11.37921189       0.23122496        3
Sc      -0.00000000       8.31717447       0.23122496        4
Sc      -6.25324438      11.92748680       3.07209351        5
Sc      -2.82707175       8.72632211       1.74472053        6
Sc      -4.48537625       9.68374466       4.58558908        7
Sc      -7.31244800      14.58037657       4.58558908        8
Sc       2.82707175       8.72632211       1.74472053        9
Sc      -0.00000000      13.62295402       1.74472053       10
Sc      -1.65830450      14.58037657       4.58558908       11
Sc      -4.48537625      12.94816594       5.59441682       12
Sc      -0.00000000      10.35853275       2.75354827       13
P       -2.57789259      14.04945214       1.40538616       14
P       -0.00000000      12.56110516       4.24625471       15
P        1.90748366       9.25724654       4.24625471       16
P       -6.39285991      14.04945214       1.40538616       17
P       -4.48537625      10.74559353       1.40538616       18
P       -1.90748366       9.25724654       4.24625471       19
Sc       1.76786813      11.37921189       5.91296206        0
Sc      -4.48537625      14.98952422       8.75383061        1
Sc      -2.71750812      11.92748680       8.75383061        2
Sc      -1.76786813      11.37921189       5.91296206        3
Sc      -0.00000000       8.31717447       5.91296206        4
Sc      -6.25324438      11.92748680       8.75383061        5
Sc      -2.82707175       8.72632211       7.42645763        6
Sc      -4.48537625       9.68374466      10.26732618        7
Sc      -7.31244800      14.58037657      10.26732618        8
Sc       2.82707175       8.72632211       7.42645763        9
Sc      -0.00000000      13.62295402       7.42645763       10
Sc      -1.65830450      14.58037657      10.26732618       11
Sc      -4.48537625      12.94816594      11.27615392       12
Sc      -0.00000000      10.35853275       8.43528537       13
P       -2.57789259      14.04945214       7.08712326       14
P       -0.00000000      12.56110516       9.92799181       15
P        1.90748366       9.25724654       9.92799181       16
P       -6.39285991      14.04945214       7.08712326       17
P       -4.48537625      10.74559353       7.08712326       18
P       -1.90748366       9.25724654       9.92799181       19
Sc      15.22399689       3.61031233       0.23122496        0
Sc       8.97075251       7.22062466       3.07209351        1
Sc      10.73862064       4.15858724       3.07209351        2
Sc      11.68826063       3.61031233       0.23122496        3
Sc      13.45612876       0.54827491       0.23122496        4
Sc       7.20288438       4.15858724       3.07209351        5
Sc      10.62905701       0.95742255       1.74472053        6
Sc       8.97075251       1.91484510       4.58558908        7
Sc       6.14368076       6.81147701       4.58558908        8
Sc      16.28320051       0.95742255       1.74472053        9
Sc      13.45612876       5.85405446       1.74472053       10
Sc      11.79782426       6.81147701       4.58558908       11
Sc       8.97075251       5.17926638       5.59441682       12
Sc      13.45612876       2.58963319       2.75354827       13
P       10.87823617       6.28055258       1.40538616       14
P       13.45612876       4.79220560       4.24625471       15
P       15.36361242       1.48834698       4.24625471       16
P        7.06326885       6.28055258       1.40538616       17
P        8.97075251       2.97669397       1.40538616       18
P       11.54864510       1.48834698       4.24625471       19
Sc      15.22399689       3.61031233       5.91296206        0
Sc       8.97075251       7.22062466       8.75383061        1
Sc      10.73862064       4.15858724       8.75383061        2
Sc      11.68826063       3.61031233       5.91296206        3
Sc      13.45612876       0.54827491       5.91296206        4
Sc       7.20288438       4.15858724       8.75383061        5
Sc      10.62905701       0.95742255       7.42645763        6
Sc       8.97075251       1.91484510      10.26732618        7
Sc       6.14368076       6.81147701      10.26732618        8
Sc      16.28320051       0.95742255       7.42645763        9
Sc      13.45612876       5.85405446       7.42645763       10
Sc      11.79782426       6.81147701      10.26732618       11
Sc       8.97075251       5.17926638      11.27615392       12
Sc      13.45612876       2.58963319       8.43528537       13
P       10.87823617       6.28055258       7.08712326       14
P       13.45612876       4.79220560       9.92799181       15
P       15.36361242       1.48834698       9.92799181       16
P        7.06326885       6.28055258       7.08712326       17
P        8.97075251       2.97669397       7.08712326       18
P       11.54864510       1.48834698       9.92799181       19
Sc      10.73862063      11.37921189       0.23122496        0
Sc       4.48537625      14.98952422       3.07209351        1
Sc       6.25324438      11.92748680       3.07209351        2
Sc       7.20288437      11.37921189       0.23122496        3
Sc       8.97075250       8.31717447       0.23122496        4
Sc       2.71750812      11.92748680       3.07209351        5
Sc       6.14368075       8.72632211       1.74472053        6
Sc       4.48537625       9.68374466       4.58558908        7
Sc       1.65830450      14.58037657       4.58558908        8
Sc      11.79782425       8.72632211       1.74472053        9
Sc       8.97075250      13.62295402       1.74472053       10
Sc       7.31244800      14.58037657       4.58558908       11
Sc       4.48537625      12.94816594       5.59441682       12
Sc       8.97075250      10.35853275       2.75354827       13
P        6.39285991      14.04945214       1.40538616       14
P        8.97075250      12.56110516       4.24625471       15
P       10.87823616       9.25724654       4.24625471       16
P        2.57789259      14.04945214       1.40538616       17
P        4.48537625      10.74559353       1.40538616       18
P        7.06326884       9.25724654       4.24625471       19
Sc      10.73862063      11.37921189       5.91296206        0
Sc       4.48537625      14.98952422       8.75383061        1
Sc       6.25324438      11.92748680       8.75383061        2
Sc       7.20288437      11.37921189       5.91296206        3
Sc       8.97075250       8.31717447       5.91296206        4
Sc       2.71750812      11.92748680       8.75383061        5
Sc       6.14368075       8.72632211       7.42645763        6
Sc       4.48537625       9.68374466      10.26732618        7
Sc       1.65830450      14.58037657      10.26732618        8
Sc      11.79782425       8.72632211       7.42645763        9
Sc       8.97075250      13.62295402       7.42645763       10
Sc       7.31244800      14.58037657      10.26732618       11
Sc       4.48537625      12.94816594      11.27615392       12
Sc       8.97075250      10.35853275       8.43528537       13
P        6.39285991      14.04945214       7.08712326       14
P        8.97075250      12.56110516       9.92799181       15
P       10.87823616       9.25724654       9.92799181       16
P        2.57789259      14.04945214       7.08712326       17
P        4.48537625      10.74559353       7.08712326       18
P        7.06326884       9.25724654       9.92799181       19
