128
Lattice="13.6324367588 0.0 0.0 0.0 16.8249700558 0.0 0.0 0.0 11.4879568576" Properties=species:S:1:pos:R:3:spacegroup_kinds:I:1 pbc="T T T"
Sc       2.20797986       7.98984735       3.73497223        0
Sc       2.20797986       4.62888019       3.73497223        1
Sc       5.61608905       7.98984735       4.88099541        2
Sc       5.61608905       4.62888019       4.88099541        3
Sc       4.60823852       3.78360484       2.00900620        4
Sc       4.60823852       0.42263767       2.00900620        5
Sc       1.20012933       3.78360484       0.86298302        6
Sc       1.20012933       0.42263767       0.86298302        7
Sc       3.22628645       6.30936377       0.78816980        8
Sc       6.63439564       6.30936377       2.08381941        9
Sc       3.58993193       2.10312126       4.95580863       10
Sc       0.18182274       2.10312126       3.66015901       11
P        0.84702550       6.30936377       5.33495995       12
P        4.25513469       6.30936377       3.28100769       13
P        5.96919288       2.10312126       0.40901848       14
P        2.56108369       2.10312126       2.46297073       15
Sc       2.20797986       7.98984735       9.47895066        0
Sc       2.20797986       4.62888019       9.47895066        1
Sc       5.61608905       7.98984735      10.62497384        2
Sc       5.61608905       4.62888019      10.62497384        3
Sc       4.60823852       3.78360484       7.75298463        4
Sc       4.60823852       0.42263767       7.75298463        5
Sc       1.20012933       3.78360484       6.60696145        6
Sc       1.20012933       0.42263767       6.60696145        7
Sc       3.22628645       6.30936377       6.53214823        8
Sc       6.63439564       6.30936377       7.82779784        9
Sc       3.58993193       2.10312126      10.69978706       10
Sc       0.18182274       2.10312126       9.40413744       11
P        0.84702550       6.30936377      11.07893838       12
P        4.25513469       6.30936377       9.02498612       13
P        5.96919288       2.10312126       6.15299691       14
P        2.56108369       2.10312126       8.20694916       15
Sc       2.20797986      16.40233238       3.73497223        0
Sc       2.20797986      13.04136522       3.73497223        1
Sc       5.61608905      16.40233238       4.88099541        2
Sc       5.61608905      13.04136522       4.88099541        3
Sc       4.60823852      12.19608987       2.00900620        4
Sc       4.60823852       8.83512270       2.00900620        5
Sc       1.20012933      12.19608987       0.86298302        6
Sc       1.20012933       8.83512270       0.86298302        7
Sc       3.22628645      14.72184880       0.78816980        8
Sc       6.63439564      14.72184880       2.08381941        9
Sc       3.58993193      10.51560629       4.95580863       10
Sc       0.18182274      10.51560629       3.66015901       11
P        0.84702550      14.72184880       5.33495995       12
P        4.25513469      14.72184880       3.28100769       13
P        5.96919288      10.51560629       0.40901848       14
P        2.56108369      10.51560629       2.46297073       15
Sc       2.20797986      16.40233238       9.47895066        0
Sc       2.20797986      13.04136522       9.47895066        1
Sc       5.61608905      16.40233238      10.62497384        2
Sc       5.61608905      13.04136522      10.62497384        3
Sc       4.60823852      12.19608987       7.75298463        4
Sc       4.60823852       8.83512270       7.75298463        5
Sc       1.20012933      12.19608987       6.60696145        6
Sc       1.20012933       8.83512270       6.60696145        7
Sc       3.22628645      14.72184880       6.53214823        8
Sc       6.63439564      14.72184880       7.82779784        9
Sc       3.58993193      10.51560629      10.69978706       10
Sc       0.18182274      10.51560629       9.40413744       11
P        0.84702550      14.72184880      11.07893838       12
P        4.25513469      14.72184880       9.02498612       13
P        5.96919288      10.51560629       6.15299691       14
P        2.56108369      10.51560629       8.20694916       15
Sc       9.02419824       7.98984735       3.73497223        0
Sc       9.02419824       4.62888019       3.73497223        1
Sc      12.43230743       7.98984735       4.88099541        2
Sc      12.43230743       4.62888019       4.88099541        3
Sc      11.42445690       3.78360484       2.00900620        4
Sc      11.42445690       0.42263767       2.00900620        5
Sc       8.01634771       3.78360484       0.86298302        6
Sc       8.01634771       0.42263767       0.86298302        7
Sc      10.04250483       6.30936377       0.78816980        8
Sc      13.45061402       6.30936377       2.08381941        9
Sc      10.40615031       2.10312126       4.95580863       10
Sc       6.99804112       2.10312126       3.66015901       11
P        7.66324388       6.30936377       5.33495995       12
P       11.07135307       6.30936377       3.28100769       13
P       12.78541126       2.10312126       0.40901848       14
P        9.37730207       2.10312126       2.46297073       15
Sc       9.02419824       7.98984735       9.47895066        0
Sc       9.02419824       4.62888019       9.47895066        1
Sc      12.43230743       7.98984735      10.62497384        2
Sc      12.43230743       4.62888019      10.62497384        3
Sc      11.42445690       3.78360484       7.75298463        4
Sc      11.42445690       0.42263767       7.75298463        5
Sc       8.01634771       3.78360484       6.60696145        6
Sc       8.01634771       0.42263767       6.60696145        7
Sc      10.04250483       6.30936377       6.53214823        8
Sc      13.45061402       6.30936377       7.82779784        9
Sc      10.40615031       2.10312126      10.69978706       10
Sc       6.99804112       2.10312126       9.40413744       11
P        7.66324388       6.30936377      11.07893838       12
P       11.07135307       6.30936377       9.02498612       13
P       12.78541126       2.10312126       6.15299691       14
P        9.37730207       2.10312126       8.20694916       15
Sc       9.02419824      16.40233238       3.73497223        0
Sc       9.02419824      13.04136522       3.73497223        1
Sc      12.43230743      16.40233238       4.88099541        2
Sc      12.43230743      13.04136522       4.88099541        3
Sc      11.42445690      12.19608987       2.00900620        4
Sc      11.42445690       8.83512270       2.00900620        5
Sc       8.01634771      12.19608987       0.86298302        6
Sc       8.01634771       8.83512270       0.86298302        7
Sc      10.04250483      14.72184880       0.78816980        8
Sc      13.45061402      14.72184880       2.08381941        9
Sc      10.40615031      10.51560629       4.95580863       10
Sc       6.99804112      10.51560629       3.66015901       11
P        7.66324388      14.72184880       5.33495995       12
P       11.07135307      14.72184880       3.28100769       13
P       12.78541126      10.51560629       0.40901848       14
P        9.37730207      10.51560629       2.46297073       15
Sc       9.02419824      16.40233238       9.47895066        0
Sc       9.02419824      13.04136522       9.47895066        1
Sc      12.43230743      16.40233238      10.62497384        2
Sc      12.43230743      13.04136522      10.62497384        3
Sc      11.42445690      12.19608987       7.75298463        4
Sc      11.42445690       8.83512270       7.75298463        5
Sc       8.01634771      12.19608987       6.60696145        6
Sc       8.01634771       8.83512270       6.60696145        7
Sc      10.04250483      14.72184880       6.53214823        8
Sc      13.45061402      14.72184880       7.82779784        9
Sc      10.40615031      10.51560629      10.69978706       10
Sc       6.99804112      10.51560629       9.40413744       11
P        7.66324388      14.72184880      11.07893838       12
P       11.07135307      14.72184880       9.02498612       13
P       12.78541126      10.51560629       6.15299691       14
P        9.37730207      10.51560629       8.20694916       15
