288
Lattice="13.2582877422 0.0 0.0 0.0 13.2582877422 0.0 0.0 0.0 24.5350627306" Properties=species:S:1:pos:R:3:spacegroup_kinds:I:1 pbc="T T T"
Sc       3.30269355       5.55018036       0.36895237        0
Sc       6.61726549       4.39353545       8.83169616        1
Sc       1.07896351       3.32645032       5.76481332        2
Sc       4.39353545       6.61726549       3.43583521        3
Sc       3.32645032       1.07896351       6.50271805        4
Sc       0.01187838       2.23560842       2.69793047        5
Sc       5.55018036       3.30269355      11.89857900        6
Sc       2.23560842       0.01187838       9.56960089        7
V        2.27517882       3.26290997      10.71480423        8
V        5.58975076       0.05166197      10.75337566        9
V        3.36623390       4.35396505       7.68649282       10
V        0.05166197       5.58975076       1.51415570       11
V        4.35396505       3.36623390       4.58103854       12
V        1.03939311       6.57748190       4.61960998       13
V        3.26290997       2.27517882       1.55272714       14
V        6.57748190       1.03939311       7.64792139       15
V        2.19751740       4.43162647       3.06688284       16
V        5.51208933       5.51208933       6.13376568       17
V        4.43162647       2.19751740       9.20064852       18
V        1.11705454       1.11705454       0.00000000       19
Si       1.36206433       3.58002824       0.79239095       20
Si       4.67663627       6.36368756       8.40825757       21
Si       3.04911563       5.26707954       5.34137473       22
Si       6.36368756       4.67663627       3.85927379       23
Si       5.26707954       3.04911563       6.92615663       24
Si       1.95250760       0.26545631       2.27449189       25
Si       3.58002824       1.36206433      11.47514042       26
Si       0.26545631       1.95250760       9.99303947       27
Si       0.86300289       5.28132767      11.40825917       28
Si       4.17757483       4.66238813      10.05992072       29
Si       1.34781620       5.76614098       6.99303788       30
Si       4.66238813       4.17757483       2.20761064       31
Si       5.76614098       1.34781620       5.27449349       32
Si       2.45156905       1.96675574       3.92615504       33
Si       5.28132767       0.86300289       0.85927220       34
Si       1.96675574       2.45156905       8.34137633       35
Sc       3.30269355       5.55018036      12.63648374        0
Sc       6.61726549       4.39353545      21.09922753        1
Sc       1.07896351       3.32645032      18.03234469        2
Sc       4.39353545       6.61726549      15.70336658        3
Sc       3.32645032       1.07896351      18.77024942        4
Sc       0.01187838       2.23560842      14.96546184        5
Sc       5.55018036       3.30269355      24.16611037        6
Sc       2.23560842       0.01187838      21.83713226        7
V        2.27517882       3.26290997      22.98233560        8
V        5.58975076       0.05166197      23.02090703        9
V        3.36623390       4.35396505      19.95402419       10
V        0.05166197       5.58975076      13.78168707       11
V        4.35396505       3.36623390      16.84856991       12
V        1.03939311       6.57748190      16.88714135       13
V        3.26290997       2.27517882      13.82025851       14
V        6.57748190       1.03939311      19.91545276       15
V        2.19751740       4.43162647      15.33441421       16
V        5.51208933       5.51208933      18.40129705       17
V        4.43162647       2.19751740      21.46817989       18
V        1.11705454       1.11705454      12.26753137       19
Si       1.36206433       3.58002824      13.05992232       20
Si       4.67663627       6.36368756      20.67578894       21
Si       3.04911563       5.26707954      17.60890610       22
Si       6.36368756       4.67663627      16.12680516       23
Si       5.26707954       3.04911563      19.19368800       24
Si       1.95250760       0.26545631      14.54202326       25
Si       3.58002824       1.36206433      23.74267179       26
Si       0.26545631       1.95250760      22.26057084       27
Si       0.86300289       5.28132767      23.67579054       28
Si       4.17757483       4.66238813      22.32745209       29
Si       1.34781620       5.76614098      19.26056925       30
Si       4.66238813       4.17757483      14.47514201       31
Si       5.76614098       1.34781620      17.54202486       32
Si       2.45156905       1.96675574      16.19368641       33
Si       5.28132767       0.86300289      13.12680357       34
Si       1.96675574       2.45156905      20.60890770       35
Sc       3.30269355      12.17932423       0.36895237        0
Sc       6.61726549      11.02267932       8.83169616        1
Sc       1.07896351       9.95559419       5.76481332        2
Sc       4.39353545      13.24640936       3.43583521        3
Sc       3.32645032       7.70810738       6.50271805        4
Sc       0.01187838       8.86475229       2.69793047        5
Sc       5.55018036       9.93183742      11.89857900        6
Sc       2.23560842       6.64102225       9.56960089        7
V        2.27517882       9.89205384      10.71480423        8
V        5.58975076       6.68080584      10.75337566        9
V        3.36623390      10.98310892       7.68649282       10
V        0.05166197      12.21889463       1.51415570       11
V        4.35396505       9.99537777       4.58103854       12
V        1.03939311      13.20662577       4.61960998       13
V        3.26290997       8.90432269       1.55272714       14
V        6.57748190       7.66853698       7.64792139       15
V        2.19751740      11.06077034       3.06688284       16
V        5.51208933      12.14123320       6.13376568       17
V        4.43162647       8.82666127       9.20064852       18
V        1.11705454       7.74619841       0.00000000       19
Si       1.36206433      10.20917211       0.79239095       20
Si       4.67663627      12.99283143       8.40825757       21
Si       3.04911563      11.89622341       5.34137473       22
Si       6.36368756      11.30578014       3.85927379       23
Si       5.26707954       9.67825950       6.92615663       24
Si       1.95250760       6.89460018       2.27449189       25
Si       3.58002824       7.99120820      11.47514042       26
Si       0.26545631       8.58165147       9.99303947       27
Si       0.86300289      11.91047154      11.40825917       28
Si       4.17757483      11.29153200      10.05992072       29
Si       1.34781620      12.39528485       6.99303788       30
Si       4.66238813      10.80671870       2.20761064       31
Si       5.76614098       7.97696007       5.27449349       32
Si       2.45156905       8.59589961       3.92615504       33
Si       5.28132767       7.49214676       0.85927220       34
Si       1.96675574       9.08071292       8.34137633       35
Sc       3.30269355      12.17932423      12.63648374        0
Sc       6.61726549      11.02267932      21.09922753        1
Sc       1.07896351       9.95559419      18.03234469        2
Sc       4.39353545      13.24640936      15.70336658        3
Sc       3.32645032       7.70810738      18.77024942        4
Sc       0.01187838       8.86475229      14.96546184        5
Sc       5.55018036       9.93183742      24.16611037        6
Sc       2.23560842       6.64102225      21.83713226        7
V        2.27517882       9.89205384      22.98233560        8
V        5.58975076       6.68080584      23.02090703        9
V        3.36623390      10.98310892      19.95402419       10
V        0.05166197      12.21889463      13.78168707       11
V        4.35396505       9.99537777      16.84856991       12
V        1.03939311      13.20662577      16.88714135       13
V        3.26290997       8.90432269      13.82025851       14
V        6.57748190       7.66853698      19.91545276       15
V        2.19751740      11.06077034      15.33441421       16
V        5.51208933      12.14123320      18.40129705       17
V        4.43162647       8.82666127      21.46817989       18
V        1.11705454       7.74619841      12.26753137       19
Si       1.36206433      10.20917211      13.05992232       20
Si       4.67663627      12.99283143      20.67578894       21
Si       3.04911563      11.89622341      17.60890610       22
Si       6.36368756      11.30578014      16.12680516       23
Si       5.26707954       9.67825950      19.19368800       24
Si       1.95250760       6.89460018      14.54202326       25
Si       3.58002824       7.99120820      23.74267179       26
Si       0.26545631       8.58165147      22.26057084       27
Si       0.86300289      11.91047154      23.67579054       28
Si       4.17757483      11.29153200      22.32745209       29
Si       1.34781620      12.39528485      19.26056925       30
Si       4.66238813      10.80671870      14.47514201       31
Si       5.76614098       7.97696007      17.54202486       32
Si       2.45156905       8.59589961      16.19368641       33
Si       5.28132767       7.49214676      13.12680357       34
Si       1.96675574       9.08071292      20.60890770       35
Sc       9.93183742       5.55018036       0.36895237        0
Sc      13.24640936       4.39353545       8.83169616        1
Sc       7.70810738       3.32645032       5.76481332        2
Sc      11.02267932       6.61726549       3.43583521        3
Sc       9.95559419       1.07896351       6.50271805        4
Sc       6.64102225       2.23560842       2.69793047        5
Sc      12.17932423       3.30269355      11.89857900        6
Sc       8.86475229       0.01187838       9.56960089        7
V        8.90432269       3.26290997      10.71480423        8
V       12.21889463       0.05166197      10.75337566        9
V        9.99537777       4.35396505       7.68649282       10
V        6.68080584       5.58975076       1.51415570       11
V       10.98310892       3.36623390       4.58103854       12
V        7.66853698       6.57748190       4.61960998       13
V        9.89205384       2.27517882       1.55272714       14
V       13.20662577       1.03939311       7.64792139       15
V        8.82666127       4.43162647       3.06688284       16
V       12.14123320       5.51208933       6.13376568       17
V       11.06077034       2.19751740       9.20064852       18
V        7.74619841       1.11705454       0.00000000       19
Si       7.99120820       3.58002824       0.79239095       20
Si      11.30578014       6.36368756       8.40825757       21
Si       9.67825950       5.26707954       5.34137473       22
Si      12.99283143       4.67663627       3.85927379       23
Si      11.89622341       3.04911563       6.92615663       24
Si       8.58165147       0.26545631       2.27449189       25
Si      10.20917211       1.36206433      11.47514042       26
Si       6.89460018       1.95250760       9.99303947       27
Si       7.49214676       5.28132767      11.40825917       28
Si      10.80671870       4.66238813      10.05992072       29
Si       7.97696007       5.76614098       6.99303788       30
Si      11.29153200       4.17757483       2.20761064       31
Si      12.39528485       1.34781620       5.27449349       32
Si       9.08071292       1.96675574       3.92615504       33
Si      11.91047154       0.86300289       0.85927220       34
Si       8.59589961       2.45156905       8.34137633       35
Sc       9.93183742       5.55018036      12.63648374        0
Sc      13.24640936       4.39353545      21.09922753        1
Sc       7.70810738       3.32645032      18.03234469        2
Sc      11.02267932       6.61726549      15.70336658        3
Sc       9.95559419       1.07896351      18.77024942        4
Sc       6.64102225       2.23560842      14.96546184        5
Sc      12.17932423       3.30269355      24.16611037        6
Sc       8.86475229       0.01187838      21.83713226        7
V        8.90432269       3.26290997      22.98233560        8
V       12.21889463       0.05166197      23.02090703        9
V        9.99537777       4.35396505      19.95402419       10
V        6.68080584       5.58975076      13.78168707       11
V       10.98310892       3.36623390      16.84856991       12
V        7.66853698       6.57748190      16.88714135       13
V        9.89205384       2.27517882      13.82025851       14
V       13.20662577       1.03939311      19.91545276       15
V        8.82666127       4.43162647      15.33441421       16
V       12.14123320       5.51208933      18.40129705       17
V       11.06077034       2.19751740      21.46817989       18
V        7.74619841       1.11705454      12.26753137       19
Si       7.99120820       3.58002824      13.05992232       20
Si      11.30578014       6.36368756      20.67578894       21
Si       9.67825950       5.26707954      17.60890610       22
Si      12.99283143       4.67663627      16.12680516       23
Si      11.89622341       3.04911563      19.19368800       24
Si       8.58165147       0.26545631      14.54202326       25
Si      10.20917211       1.36206433      23.74267179       26
Si       6.89460018       1.95250760      22.26057084       27
Si       7.49214676       5.28132767      23.67579054       28
Si      10.80671870       4.66238813      22.32745209       29
Si       7.97696007       5.76614098      19.26056925       30
Si      11.29153200       4.17757483      14.47514201       31
Si      12.39528485       1.34781620      17.54202486       32
Si       9.08071292       1.96675574      16.19368641       33
Si      11.91047154       0.86300289      13.12680357       34
Si       8.59589961       2.45156905      20.60890770       35
Sc       9.93183742      12.17932423       0.36895237        0
Sc      13.24640936      11.02267932       8.83169616        1
Sc       7.70810738       9.95559419       5.76481332        2
Sc      11.02267932      13.24640936       3.43583521        3
Sc       9.95559419       7.70810738       6.50271805        4
Sc       6.64102225       8.86475229       2.69793047        5
Sc      12.17932423       9.93183742      11.89857900        6
Sc       8.86475229       6.64102225       9.56960089        7
V        8.90432269       9.89205384      10.71480423        8
V       12.21889463       6.68080584      10.75337566        9
V        9.99537777      10.98310892       7.68649282       10
V        6.68080584      12.21889463       1.51415570       11
V       10.98310892       9.99537777       4.58103854       12
V        7.66853698      13.20662577       4.61960998       13
V        9.89205384       8.90432269       1.55272714       14
V       13.20662577       7.66853698       7.64792139       15
V        8.82666127      11.06077034       3.06688284       16
V       12.14123320      12.14123320       6.13376568       17
V       11.06077034       8.82666127       9.20064852       18
V        7.74619841       7.74619841       0.00000000       19
Si       7.99120820      10.20917211       0.79239095       20
Si      11.30578014      12.99283143       8.40825757       21
Si       9.67825950      11.89622341       5.34137473       22
Si      12.99283143      11.30578014       3.85927379       23
Si      11.89622341       9.67825950       6.92615663       24
Si       8.58165147       6.89460018       2.27449189       25
Si      10.20917211       7.99120820      11.47514042       26
Si       6.89460018       8.58165147       9.99303947       27
Si       7.49214676      11.91047154      11.40825917       28
Si      10.80671870      11.29153200      10.05992072       29
Si       7.97696007      12.39528485       6.99303788       30
Si      11.29153200      10.80671870       2.20761064       31
Si      12.39528485       7.97696007       5.27449349       32
Si       9.08071292       8.59589961       3.92615504       33
Si      11.91047154       7.49214676       0.85927220       34
Si       8.59589961       9.08071292       8.34137633       35
Sc       9.93183742      12.17932423      12.63648374        0
Sc      13.24640936      11.02267932      21.09922753        1
Sc       7.70810738       9.95559419      18.03234469        2
Sc      11.02267932      13.24640936      15.70336658        3
Sc       9.95559419       7.70810738      18.77024942        4
Sc       6.64102225       8.86475229      14.96546184        5
Sc      12.17932423       9.93183742      24.16611037        6
Sc       8.86475229       6.64102225      21.83713226        7
V        8.90432269       9.89205384      22.98233560        8
V       12.21889463       6.68080584      23.02090703        9
V        9.99537777      10.98310892      19.95402419       10
V        6.68080584      12.21889463      13.78168707       11
V       10.98310892       9.99537777      16.84856991       12
V        7.66853698      13.20662577      16.88714135       13
V        9.89205384       8.90432269      13.82025851       14
V       13.20662577       7.66853698      19.91545276       15
V        8.82666127      11.06077034      15.33441421       16
V       12.14123320      12.14123320      18.40129705       17
V       11.06077034       8.82666127      21.46817989       18
V        7.74619841       7.74619841      12.26753137       19
Si       7.99120820      10.20917211      13.05992232       20
Si      11.30578014      12.99283143      20.67578894       21
Si       9.67825950      11.89622341      17.60890610       22
Si      12.99283143      11.30578014      16.12680516       23
Si      11.89622341       9.67825950      19.19368800       24
Si       8.58165147       6.89460018      14.54202326       25
Si      10.20917211       7.99120820      23.74267179       26
Si       6.89460018       8.58165147      22.26057084       27
Si       7.49214676      11.91047154      23.67579054       28
Si      10.80671870      11.29153200      22.32745209       29
Si       7.97696007      12.39528485      19.26056925       30
Si      11.29153200      10.80671870      14.47514201       31
Si      12.39528485       7.97696007      17.54202486       32
Si       9.08071292       8.59589961      16.19368641       33
Si      11.91047154       7.49214676      13.12680357       34
Si       8.59589961       9.08071292      20.60890770       35
