288
Lattice="22.002422523729273 0.0 0.0 11.001211261864638 19.05465685034847 0.0 11.001211261864638 6.351552283449491 17.96490276275214" Properties=species:S:1:pos:R:3:spacegroup_kinds:I:1 pbc="T T T"
Si      14.04827181       8.11077351       0.47813545        0
Si       7.95415071       8.11077351       0.47813545        1
Si       7.95415071       3.15438160       7.48753212        2
Si      14.04827181       3.15438160       7.48753212        3
Si      12.20945559       7.04913247       8.71636115        4
Si      12.20945559      10.56757493       3.74053211        5
Si       9.79296694      10.56757493       3.74053211        6
Si       9.79296694       7.04913247       8.71636115        7
Si      11.00121126       2.83310982       0.47813545        8
Si      11.00121126       1.39516037       2.51170307        9
Si      15.25651614       5.28991124       3.74053211       10
Si       6.74590639       5.28991124       3.74053211       11
Si       6.70884995       5.31130578       7.48753212       12
Si       6.70884995       8.82974824       2.51170307       13
Si      15.29357257       8.82974824       2.51170307       14
Si      15.29357257       5.31130578       7.48753212       15
Si      14.04827181       3.19717068       3.74053211       16
Si       7.95415071       3.19717068       3.74053211       17
Si       7.95415071       4.59233105       1.76747739       18
Si      14.04827181       4.59233105       1.76747739       19
Si       9.75591051      10.58896947       7.48753212       20
Si      12.24651202      10.58896947       7.48753212       21
Si      11.00121126       4.95639191       8.71636115       22
Si      11.00121126       9.86999474       1.76747739       23
Si      16.50181689       9.52732843       8.08707894       24
Si      16.50181689      10.80034729       6.28675840       25
Si      12.10367794       6.98806172       4.94130583       26
Si       9.89874459       6.98806172       4.94130583       27
Si      17.60428357       8.89081899       6.28675840       28
Si      15.39935022       8.89081899       6.28675840       29
Si      11.00121126       5.07853342       4.94130583       30
Si      11.00121126       6.35155228       3.14098528       31
Si      11.00121126       6.35155228       1.12280642       32
Si      11.00121126       3.17577614       5.61403211       33
Si      13.75151408       7.93944035       5.61403211       34
Si       8.25090845       7.93944035       5.61403211       35
Si      19.54887744      11.28654965       9.46058683        0
Si      13.45475634      11.28654965       9.46058683        1
Si      13.45475634       6.33015774      16.46998350        2
Si      19.54887744       6.33015774      16.46998350        3
Si      17.71006122      10.22490861      17.69881253        4
Si      17.71006122      13.74335107      12.72298349        5
Si      15.29357257      13.74335107      12.72298349        6
Si      15.29357257      10.22490861      17.69881253        7
Si      16.50181689       6.00888596       9.46058683        8
Si      16.50181689       4.57093651      11.49415445        9
Si      20.75712177       8.46568738      12.72298349       10
Si      12.24651202       8.46568738      12.72298349       11
Si      12.20945558       8.48708192      16.46998350       12
Si      12.20945558      12.00552438      11.49415445       13
Si      20.79417820      12.00552438      11.49415445       14
Si      20.79417820       8.48708192      16.46998350       15
Si      19.54887744       6.37294682      12.72298349       16
Si      13.45475634       6.37294682      12.72298349       17
Si      13.45475634       7.76810719      10.74992877       18
Si      19.54887744       7.76810719      10.74992877       19
Si      15.25651614      13.76474561      16.46998350       20
Si      17.74711765      13.76474561      16.46998350       21
Si      16.50181689       8.13216805      17.69881253       22
Si      16.50181689      13.04577088      10.74992877       23
Si      22.00242252      12.70310457      17.06953032       24
Si      22.00242252      13.97612343      15.26920978       25
Si      17.60428357      10.16383786      13.92375721       26
Si      15.39935022      10.16383786      13.92375721       27
Si      23.10488920      12.06659513      15.26920978       28
Si      20.89995585      12.06659513      15.26920978       29
Si      16.50181689       8.25430956      13.92375721       30
Si      16.50181689       9.52732842      12.12343666       31
Si      16.50181689       9.52732842      10.10525780       32
Si      16.50181689       6.35155228      14.59648349       33
Si      19.25211971      11.11521649      14.59648349       34
Si      13.75151408      11.11521649      14.59648349       35
Si      19.54887744      17.63810194       0.47813545        0
Si      13.45475634      17.63810194       0.47813545        1
Si      13.45475634      12.68171003       7.48753212        2
Si      19.54887744      12.68171003       7.48753212        3
Si      17.71006122      16.57646090       8.71636115        4
Si      17.71006122      20.09490336       3.74053211        5
Si      15.29357257      20.09490336       3.74053211        6
Si      15.29357257      16.57646090       8.71636115        7
Si      16.50181689      12.36043825       0.47813545        8
Si      16.50181689      10.92248880       2.51170307        9
Si      20.75712177      14.81723967       3.74053211       10
Si      12.24651202      14.81723967       3.74053211       11
Si      12.20945558      14.83863421       7.48753212       12
Si      12.20945558      18.35707667       2.51170307       13
Si      20.79417820      18.35707667       2.51170307       14
Si      20.79417820      14.83863421       7.48753212       15
Si      19.54887744      12.72449911       3.74053211       16
Si      13.45475634      12.72449911       3.74053211       17
Si      13.45475634      14.11965948       1.76747739       18
Si      19.54887744      14.11965948       1.76747739       19
Si      15.25651614      20.11629790       7.48753212       20
Si      17.74711765      20.11629790       7.48753212       21
Si      16.50181689      14.48372034       8.71636115       22
Si      16.50181689      19.39732317       1.76747739       23
Si      22.00242252      19.05465686       8.08707894       24
Si      22.00242252      20.32767572       6.28675840       25
Si      17.60428357      16.51539015       4.94130583       26
Si      15.39935022      16.51539015       4.94130583       27
Si      23.10488920      18.41814742       6.28675840       28
Si      20.89995585      18.41814742       6.28675840       29
Si      16.50181689      14.60586185       4.94130583       30
Si      16.50181689      15.87888071       3.14098528       31
Si      16.50181689      15.87888071       1.12280642       32
Si      16.50181689      12.70310457       5.61403211       33
Si      19.25211971      17.46676878       5.61403211       34
Si      13.75151408      17.46676878       5.61403211       35
Si      25.04948307      20.81387808       9.46058683        0
Si      18.95536197      20.81387808       9.46058683        1
Si      18.95536197      15.85748617      16.46998350        2
Si      25.04948307      15.85748617      16.46998350        3
Si      23.21066685      19.75223704      17.69881253        4
Si      23.21066685      23.27067950      12.72298349        5
Si      20.79417820      23.27067950      12.72298349        6
Si      20.79417820      19.75223704      17.69881253        7
Si      22.00242252      15.53621439       9.46058683        8
Si      22.00242252      14.09826494      11.49415445        9
Si      26.25772740      17.99301581      12.72298349       10
Si      17.74711765      17.99301581      12.72298349       11
Si      17.71006121      18.01441035      16.46998350       12
Si      17.71006121      21.53285281      11.49415445       13
Si      26.29478383      21.53285281      11.49415445       14
Si      26.29478383      18.01441035      16.46998350       15
Si      25.04948307      15.90027525      12.72298349       16
Si      18.95536197      15.90027525      12.72298349       17
Si      18.95536197      17.29543562      10.74992877       18
Si      25.04948307      17.29543562      10.74992877       19
Si      20.75712177      23.29207404      16.46998350       20
Si      23.24772328      23.29207404      16.46998350       21
Si      22.00242252      17.65949648      17.69881253       22
Si      22.00242252      22.57309931      10.74992877       23
Si      27.50302815      22.23043300      17.06953032       24
Si      27.50302815      23.50345186      15.26920978       25
Si      23.10488920      19.69116629      13.92375721       26
Si      20.89995585      19.69116629      13.92375721       27
Si      28.60549483      21.59392356      15.26920978       28
Si      26.40056148      21.59392356      15.26920978       29
Si      22.00242252      17.78163799      13.92375721       30
Si      22.00242252      19.05465685      12.12343666       31
Si      22.00242252      19.05465685      10.10525780       32
Si      22.00242252      15.87888071      14.59648349       33
Si      24.75272534      20.64254492      14.59648349       34
Si      19.25211971      20.64254492      14.59648349       35
Si      25.04948307       8.11077351       0.47813545        0
Si      18.95536197       8.11077351       0.47813545        1
Si      18.95536197       3.15438160       7.48753212        2
Si      25.04948307       3.15438160       7.48753212        3
Si      23.21066685       7.04913247       8.71636115        4
Si      23.21066685      10.56757493       3.74053211        5
Si      20.79417820      10.56757493       3.74053211        6
Si      20.79417820       7.04913247       8.71636115        7
Si      22.00242252       2.83310982       0.47813545        8
Si      22.00242252       1.39516037       2.51170307        9
Si      26.25772740       5.28991124       3.74053211       10
Si      17.74711765       5.28991124       3.74053211       11
Si      17.71006121       5.31130578       7.48753212       12
Si      17.71006121       8.82974824       2.51170307       13
Si      26.29478383       8.82974824       2.51170307       14
Si      26.29478383       5.31130578       7.48753212       15
Si      25.04948307       3.19717068       3.74053211       16
Si      18.95536197       3.19717068       3.74053211       17
Si      18.95536197       4.59233105       1.76747739       18
Si      25.04948307       4.59233105       1.76747739       19
Si      20.75712177      10.58896947       7.48753212       20
Si      23.24772328      10.58896947       7.48753212       21
Si      22.00242252       4.95639191       8.71636115       22
Si      22.00242252       9.86999474       1.76747739       23
Si      27.50302815       9.52732843       8.08707894       24
Si      27.50302815      10.80034729       6.28675840       25
Si      23.10488920       6.98806172       4.94130583       26
Si      20.89995585       6.98806172       4.94130583       27
Si      28.60549483       8.89081899       6.28675840       28
Si      26.40056148       8.89081899       6.28675840       29
Si      22.00242252       5.07853342       4.94130583       30
Si      22.00242252       6.35155228       3.14098528       31
Si      22.00242252       6.35155228       1.12280642       32
Si      22.00242252       3.17577614       5.61403211       33
Si      24.75272534       7.93944035       5.61403211       34
Si      19.25211971       7.93944035       5.61403211       35
Si      30.55008870      11.28654965       9.46058683        0
Si      24.45596760      11.28654965       9.46058683        1
Si      24.45596760       6.33015774      16.46998350        2
Si      30.55008870       6.33015774      16.46998350        3
Si      28.71127248      10.22490861      17.69881253        4
Si      28.71127248      13.74335107      12.72298349        5
Si      26.29478383      13.74335107      12.72298349        6
Si      26.29478383      10.22490861      17.69881253        7
Si      27.50302815       6.00888596       9.46058683        8
Si      27.50302815       4.57093651      11.49415445        9
Si      31.75833303       8.46568738      12.72298349       10
Si      23.24772328       8.46568738      12.72298349       11
Si      23.21066684       8.48708192      16.46998350       12
Si      23.21066684      12.00552438      11.49415445       13
Si      31.79538946      12.00552438      11.49415445       14
Si      31.79538946       8.48708192      16.46998350       15
Si      30.55008870       6.37294682      12.72298349       16
Si      24.45596760       6.37294682      12.72298349       17
Si      24.45596760       7.76810719      10.74992877       18
Si      30.55008870       7.76810719      10.74992877       19
Si      26.25772740      13.76474561      16.46998350       20
Si      28.74832891      13.76474561      16.46998350       21
Si      27.50302815       8.13216805      17.69881253       22
Si      27.50302815      13.04577088      10.74992877       23
Si      33.00363378      12.70310457      17.06953032       24
Si      33.00363378      13.97612343      15.26920978       25
Si      28.60549483      10.16383786      13.92375721       26
Si      26.40056148      10.16383786      13.92375721       27
Si      34.10610046      12.06659513      15.26920978       28
Si      31.90116711      12.06659513      15.26920978       29
Si      27.50302815       8.25430956      13.92375721       30
Si      27.50302815       9.52732842      12.12343666       31
Si      27.50302815       9.52732842      10.10525780       32
Si      27.50302815       6.35155228      14.59648349       33
Si      30.25333097      11.11521649      14.59648349       34
Si      24.75272534      11.11521649      14.59648349       35
Si      30.55008870      17.63810194       0.47813545        0
Si      24.45596760      17.63810194       0.47813545        1
Si      24.45596760      12.68171003       7.48753212        2
Si      30.55008870      12.68171003       7.48753212        3
Si      28.71127248      16.57646090       8.71636115        4
Si      28.71127248      20.09490336       3.74053211        5
Si      26.29478383      20.09490336       3.74053211        6
Si      26.29478383      16.57646090       8.71636115        7
Si      27.50302815      12.36043825       0.47813545        8
Si      27.50302815      10.92248880       2.51170307        9
Si      31.75833303      14.81723967       3.74053211       10
Si      23.24772328      14.81723967       3.74053211       11
Si      23.21066684      14.83863421       7.48753212       12
Si      23.21066684      18.35707667       2.51170307       13
Si      31.79538946      18.35707667       2.51170307       14
Si      31.79538946      14.83863421       7.48753212       15
Si      30.55008870      12.72449911       3.74053211       16
Si      24.45596760      12.72449911       3.74053211       17
Si      24.45596760      14.11965948       1.76747739       18
Si      30.55008870      14.11965948       1.76747739       19
Si      26.25772740      20.11629790       7.48753212       20
Si      28.74832891      20.11629790       7.48753212       21
Si      27.50302815      14.48372034       8.71636115       22
Si      27.50302815      19.39732317       1.76747739       23
Si      33.00363378      19.05465686       8.08707894       24
Si      33.00363378      20.32767572       6.28675840       25
Si      28.60549483      16.51539015       4.94130583       26
Si      26.40056148      16.51539015       4.94130583       27
Si      34.10610046      18.41814742       6.28675840       28
Si      31.90116711      18.41814742       6.28675840       29
Si      27.50302815      14.60586185       4.94130583       30
Si      27.50302815      15.87888071       3.14098528       31
Si      27.50302815      15.87888071       1.12280642       32
Si      27.50302815      12.70310457       5.61403211       33
Si      30.25333097      17.46676878       5.61403211       34
Si      24.75272534      17.46676878       5.61403211       35
Si      36.05069433      20.81387808       9.46058683        0
Si      29.95657323      20.81387808       9.46058683        1
Si      29.95657323      15.85748617      16.46998350        2
Si      36.05069433      15.85748617      16.46998350        3
Si      34.21187811      19.75223704      17.69881253        4
Si      34.21187811      23.27067950      12.72298349        5
Si      31.79538946      23.27067950      12.72298349        6
Si      31.79538946      19.75223704      17.69881253        7
Si      33.00363378      15.53621439       9.46058683        8
Si      33.00363378      14.09826494      11.49415445        9
Si      37.25893866      17.99301581      12.72298349       10
Si      28.74832891      17.99301581      12.72298349       11
Si      28.71127247      18.01441035      16.46998350       12
Si      28.71127247      21.53285281      11.49415445       13
Si      37.29599509      21.53285281      11.49415445       14
Si      37.29599509      18.01441035      16.46998350       15
Si      36.05069433      15.90027525      12.72298349       16
Si      29.95657323      15.90027525      12.72298349       17
Si      29.95657323      17.29543562      10.74992877       18
Si      36.05069433      17.29543562      10.74992877       19
Si      31.75833303      23.29207404      16.46998350       20
Si      34.24893454      23.29207404      16.46998350       21
Si      33.00363378      17.65949648      17.69881253       22
Si      33.00363378      22.57309931      10.74992877       23
Si      38.50423941      22.23043300      17.06953032       24
Si      38.50423941      23.50345186      15.26920978       25
Si      34.10610046      19.69116629      13.92375721       26
Si      31.90116711      19.69116629      13.92375721       27
Si      39.60670609      21.59392356      15.26920978       28
Si      37.40177274      21.59392356      15.26920978       29
Si      33.00363378      17.78163799      13.92375721       30
Si      33.00363378      19.05465685      12.12343666       31
Si      33.00363378      19.05465685      10.10525780       32
Si      33.00363378      15.87888071      14.59648349       33
Si      35.75393660      20.64254492      14.59648349       34
Si      30.25333097      20.64254492      14.59648349       35
