4
Lattice="4.03892969 0.0 0.0 0.0 4.03892969 0.0 0.0 0.0 4.03892969" Properties=species:S:1:pos:R:3:spacegroup_kinds:I:1 spacegroup="P 1" unit_cell=conventional occupancy="_JSON {\"0\": {\"Al\": 1}, \"1\": {\"Al\": 1}, \"2\": {\"Al\": 1}, \"3\": {\"Al\": 1}}" pbc="T T T"
Al       0.00000000       0.00000000       0.00000000        0
Al       0.00000000       2.01946484       2.01946484        1
Al       2.01946484       0.00000000       2.01946484        2
Al       2.01946484       2.01946484       0.00000000        3
