18
Lattice="2.844435082376654 0.08534802860134252 0.20452000271103601 0.005550380369039473 2.694514587190624 -0.022553315229675075 -0.012930019992007038 0.016540551794626896 5.825832818398689" Properties=species:S:1:pos:R:3 pbc="T T T"
C        2.27914786       2.49661096       1.86672313
C        2.66465519       2.22966005       4.71463287
S        1.11046033       1.05996940       0.21930767
S        1.00032337       0.94543268       3.13254374
H        0.90134310       0.86332825       1.54470477
H        0.95925986       0.82833569       4.67313710
H        2.54251319       1.99751664       1.12869923
H        0.66232448       2.35835822       4.46281409
H        2.29411550       1.29625800       4.61921903
H        2.66724107       2.08384131       2.65698829
H        2.30836028       1.21969417       3.27971947
H        2.28245512       0.86608628       1.70571591
H        0.97611018       2.13437469       0.12182482
H        2.13222740       2.69384154       3.87102455
H        2.09731372       2.59410137       5.41043408
H        2.30260743       0.98015895       0.47374572
H        1.24697602       2.15048071       1.76249591
H        0.91041979       2.27117106       3.22896840
