72
Lattice="5.708676929029277 0.0 0.0 -0.064364860071955 5.7083021226840245 0.0 8.368530528467502e-05 9.433627496953962e-05 5.834786715830881" Properties=species:S:1:pos:R:3 pbc="T T T"
C        2.20679425       2.58337952       1.66471498
C        2.50102791       2.29284286       4.58214334
S        0.94294919       1.01063483       0.20617663
S        0.94298032       1.01097712       3.12351797
H        0.86958656       1.08423771       1.66513703
H        1.01686809       0.93846788       4.58254532
H        2.61547281       2.17941668       0.81143638
H        0.66506626       2.45530220       4.58208902
H        2.35015194       1.27273284       4.58198887
H        2.61563095       2.17977906       2.51807144
H        2.37039555       1.01098924       3.12319241
H        2.39035527       0.74932327       1.66439711
H        0.92676844       2.43756433       0.20584648
H        2.09257123       2.69684130       3.72880705
H        2.09272493       2.69620600       5.43581117
H        2.36994745       1.01098353       0.20570903
H        1.18853725       2.42115536       1.66465780
H        0.92697715       2.43787160       3.12347102
C        2.17461182       5.43753058       1.66471498
C        2.46884548       5.14699392       4.58214334
S        0.91076676       3.86478589       0.20617663
S        0.91079789       3.86512818       3.12351797
H        0.83740413       3.93838877       1.66513703
H        0.98468566       3.79261894       4.58254532
H        2.58329038       5.03356774       0.81143638
H        0.63288383       5.30945326       4.58208902
H        2.31796951       4.12688390       4.58198887
H        2.58344852       5.03393012       2.51807144
H        2.33821312       3.86514030       3.12319241
H        2.35817284       3.60347433       1.66439711
H        0.89458601       5.29171539       0.20584648
H        2.06038880       5.55099236       3.72880705
H        2.06054250       5.55035706       5.43581117
H        2.33776502       3.86513459       0.20570903
H        1.15635482       5.27530642       1.66465780
H        0.89479472       5.29202266       3.12347102
C        5.06113271       2.58337952       1.66471498
C        5.35536637       2.29284286       4.58214334
S        3.79728765       1.01063483       0.20617663
S        3.79731878       1.01097712       3.12351797
H        3.72392502       1.08423771       1.66513703
H        3.87120655       0.93846788       4.58254532
H        5.46981127       2.17941668       0.81143638
H        3.51940472       2.45530220       4.58208902
H        5.20449040       1.27273284       4.58198887
H        5.46996941       2.17977906       2.51807144
H        5.22473401       1.01098924       3.12319241
H        5.24469373       0.74932327       1.66439711
H        3.78110690       2.43756433       0.20584648
H        4.94690969       2.69684130       3.72880705
H        4.94706339       2.69620600       5.43581117
H        5.22428591       1.01098353       0.20570903
H        4.04287571       2.42115536       1.66465780
H        3.78131561       2.43787160       3.12347102
C        5.02895028       5.43753058       1.66471498
C        5.32318394       5.14699392       4.58214334
S        3.76510522       3.86478589       0.20617663
S        3.76513635       3.86512818       3.12351797
H        3.69174259       3.93838877       1.66513703
H        3.83902412       3.79261894       4.58254532
H        5.43762884       5.03356774       0.81143638
H        3.48722229       5.30945326       4.58208902
H        5.17230797       4.12688390       4.58198887
H        5.43778698       5.03393012       2.51807144
H        5.19255158       3.86514030       3.12319241
H        5.21251130       3.60347433       1.66439711
H        3.74892447       5.29171539       0.20584648
H        4.91472726       5.55099236       3.72880705
H        4.91488096       5.55035706       5.43581117
H        5.19210348       3.86513459       0.20570903
H        4.01069328       5.27530642       1.66465780
H        3.74913318       5.29202266       3.12347102
