10
Lattice="4.341 0.0 0.0 0.0 4.341 0.0 0.0 0.0 9.896" Properties=species:S:1:pos:R:3:spacegroup_kinds:I:1 spacegroup="I 4 m m" unit_cell=conventional occupancy="_JSON {\"0\": {\"Eu\": 1}, \"1\": {\"Ge\": 1}, \"2\": {\"Ge\": 1}, \"3\": {\"Ni\": 1}}" pbc="T T T"
Eu       0.00000000       0.00000000       0.00009896        0
Eu       2.17050000       2.17050000       4.94809896        0
Ge       2.17050000       2.17050000       9.06671520        1
Ge       0.00000000       0.00000000       4.11871520        1
Ge       0.00000000       2.17050000       7.44911504        2
Ge       2.17050000       0.00000000       7.44911504        2
Ge       2.17050000       0.00000000       2.50111504        2
Ge       0.00000000       2.17050000       2.50111504        2
Ni       2.17050000       2.17050000       1.50884312        3
Ni       0.00000000       0.00000000       6.45684312        3
