16
Lattice="5.054469751587887 0.0 0.0 1.6843203477213364 4.765179233782218 0.0 -0.8423407363937334 1.1910193410203074 2.06368298824832" Properties=species:S:1:pos:R:3 pbc="T T T"
H        1.20503775       0.86608061       0.42725648
H        2.05213208       1.46178688       1.45541813
H        1.20491669       2.65006107       1.45741440
S        2.89109545       2.05736173       0.42406645
H        2.04719792       3.24867023       0.42725648
H        2.89429225       3.84437650       1.45541813
H        2.04707686       5.03265069       1.45741440
S        3.73325562       4.43995135       0.42406645
H        3.73227263       0.86608061       0.42725648
H        4.57936696       1.46178688       1.45541813
H        3.73215157       2.65006107       1.45741440
S        5.41833033       2.05736173       0.42406645
H        4.57443280       3.24867023       0.42725648
H        5.42152713       3.84437650       1.45541813
H        4.57431174       5.03265069       1.45741440
S        6.26049050       4.43995135       0.42406645
