64
Lattice="9.788053405073132 0.09418503426111349 -0.13868381125896354 3.4041450387098613 9.52021747458194 -0.1725067820487438 -0.8913143646301059 1.2414192295461381 2.022240521244939" Properties=species:S:1:pos:R:3 pbc="T T T"
H        1.21004140       0.87284161       0.45631159
H        2.09519189       1.49586137       1.35823398
H        1.29815649       2.77128456       1.33253684
S        2.86511214       2.04202757       0.30291995
H        2.03560247       3.07539439       0.17592425
H        2.73769641       3.79804797       1.36994571
H        1.90046906       4.93336509       1.48292246
S        3.63931476       4.47517653       0.16389141
H        3.55294507       0.92130656       0.24177242
H        4.42747206       1.48275910       1.31780734
H        3.52707791       2.90331516       1.34346360
S        5.15209840       2.19417009       0.19273761
H        4.47930595       3.09430166       0.18092648
H        5.26062464       3.99672400       1.32098685
H        4.42671999       5.06803135       1.15383443
S        6.03692132       4.44590609       0.37740750
H        2.91211392       5.63295035       0.37005820
H        3.79726441       6.25597011       1.27198059
H        3.00022901       7.53139330       1.24628345
S        4.56718466       6.80213631       0.21666656
H        3.73767499       7.83550313       0.08967086
H        4.43976893       8.55815671       1.28369232
H        3.60254158       9.69347383       1.39666907
S        5.34138728       9.23528527       0.07763802
H        5.25501759       5.68141530       0.15551903
H        6.12954458       6.24286784       1.23155395
H        5.22915043       7.66342390       1.25721021
S        6.85417092       6.95427883       0.10648422
H        6.18137847       7.85441040       0.09467309
H        6.96269716       8.75683274       1.23473346
H        6.12879251       9.82814009       1.06758104
S        7.73899384       9.20601483       0.29115411
H        6.10406810       0.91993413       0.38696968
H        6.98921859       1.54295389       1.28889207
H        6.19218319       2.81837708       1.26319493
S        7.75913884       2.08912009       0.23357804
H        6.92962917       3.12248691       0.10658234
H        7.63172311       3.84514049       1.30060380
H        6.79449576       4.98045761       1.41358055
S        8.53334146       4.52226905       0.09454950
H        8.44697177       0.96839908       0.17243051
H        9.32149876       1.52985162       1.24846543
H        8.42110461       2.95040768       1.27412169
S       10.04612510       2.24126261       0.12339570
H        9.37333265       3.14139418       0.11158457
H       10.15465134       4.04381652       1.25164494
H        9.32074669       5.11512387       1.08449252
S       10.93094802       4.49299861       0.30806559
H        7.80614062       5.68004286       0.30071629
H        8.69129111       6.30306262       1.20263868
H        7.89425571       7.57848581       1.17694154
S        9.46121136       6.84922882       0.14732465
H        8.63170169       7.88259564       0.02032895
H        9.33379563       8.60524922       1.21435041
H        8.49656828       9.74056634       1.32732716
S       10.23541398       9.28237778       0.00829611
H       10.14904429       5.72850781       0.08617712
H       11.02357128       6.28996035       1.16221204
H       10.12317713       7.71051641       1.18786830
S       11.74819762       7.00137134       0.03714231
H       11.07540517       7.90150291       0.02533118
H       11.85672386       8.80392525       1.16539155
H       11.02281921       9.87523260       0.99823913
S       12.63302054       9.25310734       0.22181220
