11
Lattice="3.41529878 0.00042275 6.251e-05 -0.00072659 5.90007575 0.01015279 -0.00012043 0.0091078 5.56549502" Properties=species:S:1:pos:R:3 enthalpy=-1632636.25108856 pbc="T T T"
N        0.94527311       5.78438579       0.13217032
Lu       2.65350002       0.85169337       1.45934651
Lu       2.65294446       4.82654623       4.36034880
N        2.65328852       2.83453694       0.12708241
Lu       0.94562518       1.83698872       4.36713900
Lu       0.94548837       3.84078671       1.45243087
H        2.65291138       4.70826432       2.22634039
H        0.94568057       1.91370770       2.23212120
H        0.94545838       3.76408066       3.58742286
H        0.94519452       5.78892405       2.91478505
H        2.65347839       0.96998472       3.59328585
