32
Lattice="8.07785938 0.0 0.0 0.0 8.07785938 0.0 0.0 0.0 8.07785938" Properties=species:S:1:pos:R:3:spacegroup_kinds:I:1 pbc="T T T"
Al       0.00000000       0.00000000       0.00000000        0
Al       0.00000000       2.01946484       2.01946484        1
Al       2.01946484       0.00000000       2.01946484        2
Al       2.01946484       2.01946484       0.00000000        3
Al       0.00000000       0.00000000       4.03892969        0
Al       0.00000000       2.01946484       6.05839453        1
Al       2.01946484       0.00000000       6.05839453        2
Al       2.01946484       2.01946484       4.03892969        3
Al       0.00000000       4.03892969       0.00000000        0
Al       0.00000000       6.05839453       2.01946484        1
Al       2.01946484       4.03892969       2.01946484        2
Al       2.01946484       6.05839453       0.00000000        3
Al       0.00000000       4.03892969       4.03892969        0
Al       0.00000000       6.05839453       6.05839453        1
Al       2.01946484       4.03892969       6.05839453        2
Al       2.01946484       6.05839453       4.03892969        3
Al       4.03892969       0.00000000       0.00000000        0
Al       4.03892969       2.01946484       2.01946484        1
Al       6.05839453       0.00000000       2.01946484        2
Al       6.05839453       2.01946484       0.00000000        3
Al       4.03892969       0.00000000       4.03892969        0
Al       4.03892969       2.01946484       6.05839453        1
Al       6.05839453       0.00000000       6.05839453        2
Al       6.05839453       2.01946484       4.03892969        3
Al       4.03892969       4.03892969       0.00000000        0
Al       4.03892969       6.05839453       2.01946484        1
Al       6.05839453       4.03892969       2.01946484        2
Al       6.05839453       6.05839453       0.00000000        3
Al       4.03892969       4.03892969       4.03892969        0
Al       4.03892969       6.05839453       6.05839453        1
Al       6.05839453       4.03892969       6.05839453        2
Al       6.05839453       6.05839453       4.03892969        3
