108
Lattice="12.11678907 0.0 0.0 0.0 12.11678907 0.0 0.0 0.0 12.11678907" Properties=species:S:1:pos:R:3:spacegroup_kinds:I:1 pbc="T T T"
Al       0.14901425      -0.04147929       0.19430656        0
Al       0.45690896       1.94921883       1.94922375        1
Al       2.49322868       0.23023042       1.87862252        2
Al       2.18223285       1.88043953      -0.13971893        3
Al       0.07258868      -0.57398407       3.52145434        0
Al      -0.16868626       1.71561550       6.15266873        1
Al       1.74705762      -0.42369111       6.49808916        2
Al       1.95173195       2.03972330       3.61150523        3
Al      -0.16331482       0.03327678       7.73256131        0
Al       0.11270941       1.83927323      10.00981610        1
Al       1.83895286       0.55568346      10.09327505        2
Al       1.70215156       2.26622831       7.71160629        3
Al       0.06265908       3.45102865      -0.39845581        0
Al       0.05905837       6.27993450       2.07087532        1
Al       1.98477036       3.94859858       1.57590824        2
Al       1.80351158       5.92020290       0.31713667        3
Al       0.10308549       3.51001764       4.13615488        0
Al      -0.11552468       5.85531793       6.24189742        1
Al       2.32876470       4.31831373       5.80662927        2
Al       1.92670113       6.15777356       4.33159323        3
Al      -0.14375227       3.98323200       7.74595889        0
Al      -0.35886199       6.30215228      10.50419623        1
Al       1.99786180       4.33998956      10.20581503        2
Al       1.82592891       6.16681321       8.53927035        3
Al      -0.01074781       8.54725248      -0.78592353        0
Al       0.24657075      10.12343834       1.92976263        1
Al       2.04699307       7.48158871       1.95356327        2
Al       2.12659861      10.54069243      -0.15548107        3
Al      -0.24254808       7.92733227       4.31355033        0
Al       0.09862533       9.93839616       6.21237476        1
Al       2.04858810       8.36845288       5.84777860        2
Al       1.92116620       9.97969177       3.59987521        3
Al       0.08883608       8.15617596       8.07939342        0
Al      -0.07037614       9.67271300       9.97113062        1
Al       1.91665049       7.83717620      10.04893851        2
Al       2.14068010      10.66317999       8.13023272        3
Al       4.11619481      -0.02233377      -0.57563136        0
Al       4.03097553       2.03753390       2.75843747        1
Al       6.00068624       0.09046420       2.00905131        2
Al       5.70779112       2.36231168       0.22557991        3
Al       4.27623927      -0.27281624       4.45976798        0
Al       3.61837437       2.19552197       6.71553122        1
Al       5.76123363      -0.16988932       6.08828994        2
Al       5.90735183       1.55426581       4.05949858        3
Al       3.72023858       0.14207773       7.80203211        0
Al       4.50391001       1.78448885      10.00070577        1
Al       6.30244970      -0.36925929      10.16556220        2
Al       6.45053736       1.53721987       8.13324954        3
Al       4.11689453       4.27347655      -0.37108521        0
Al       3.64279271       6.21497700       2.10856024        1
Al       6.13354239       4.14286415       1.81545742        2
Al       6.12807064       6.14631627      -0.21430543        3
Al       4.59866204       4.18107957       3.68153864        0
Al       4.23589577       5.76599003       6.29451991        1
Al       6.40597320       3.79272499       6.34740737        2
Al       6.18222881       6.30501258       4.60796758        3
Al       3.96531326       3.81280884       7.81100505        0
Al       3.79418660       6.03526402      10.19966981        1
Al       6.14140177       4.28708466      10.10122479        2
Al       6.49445475       5.97899748       8.89391013        3
Al       4.22662989       7.82071211      -0.32126775        0
Al       4.18367141      10.03028538       2.23366499        1
Al       6.20036582       8.05601071       1.76542672        2
Al       5.60394036       9.96336973       0.25691964        3
Al       4.10315781       7.70413775       4.09088397        0
Al       4.15452490       9.83216699       6.10451206        1
Al       6.07585715       7.73496829       6.16573074        2
Al       6.22662989      10.42223959       4.35507031        3
Al       3.62562888       7.79651187       8.23236996        0
Al       4.19306548      10.25183853      11.25314367        1
Al       6.22966168       8.41852907      10.38352475        2
Al       6.25381191      10.00274345       8.30555015        3
Al       7.84601182      -0.07104558      -0.14560906        0
Al       8.10242162       2.71386241       1.45928528        1
Al      10.30320228      -0.48381476       1.87788528        2
Al      10.42400940       2.03874885      -0.32332343        3
Al       7.86326827       0.20387932       3.81981970        0
Al       8.14279696       2.03313639       5.86291443        1
Al      10.74050745       0.19017571       5.45085175        2
Al      10.15326051       1.82092890       4.29465969        3
Al       7.84010316      -0.03442093       8.22935556        0
Al       8.33758594       1.65937592       9.99697385        1
Al       9.95484063      -0.19599877      10.62696049        2
Al      10.21881873       1.64119965       8.35321796        3
Al       8.71450624       4.34866927      -0.45581099        0
Al       7.93258916       6.43846787       1.80716400        1
Al      10.23047005       4.27131991       1.74138570        2
Al      10.07946661       5.08601433      -0.30731629        3
Al       8.00208893       3.66459474       4.52865308        0
Al       7.64881697       5.92638118       6.09761670        1
Al      10.52970621       3.60817104       6.40734366        2
Al      10.10039414       5.76394193       4.17756073        3
Al       8.13757729       3.85886463       8.09880001        0
Al       7.96226530       6.09244973      10.29596342        1
Al      10.57312926       3.66758504      10.73723423        2
Al       9.51169788       6.01285900       8.25435454        3
Al       8.16215694       7.89104952      -0.06243668        0
Al       7.92995910       9.92051479       2.27434547        1
Al      10.20442887       7.86998650       2.28934480        2
Al      10.18951408      10.34118286       0.18888865        3
Al       7.82916088       7.90980507       4.26311777        0
Al       8.26097046      10.09105374       6.09359274        1
Al      10.48062369       7.90038796       6.22252374        2
Al      10.03666642      10.03201986       4.36856275        3
Al       8.32548428       8.32191227       8.46950302        0
Al       8.08416053      10.30191011      10.00424419        1
Al      10.19457413       8.03881646      10.12642301        2
Al      10.27587133       9.85185802       8.70557556        3
