20
Lattice="5.6807491265792 0.0 0.0 -2.840374563389473 4.919673056114773 0.0 0.0 0.0 10.30050451602" Properties=species:S:1:pos:R:3:spacegroup_kinds:I:1 spacegroup="P 1" unit_cell=conventional occupancy="_JSON {\"0\": {\"Li\": 1.0}, \"1\": {\"Li\": 1.0}, \"2\": {\"Al\": 1.0}, \"3\": {\"Al\": 1.0}, \"4\": {\"Al\": 1.0}, \"5\": {\"Al\": 1.0}, \"6\": {\"Br\": 1.0}, \"7\": {\"Br\": 1.0}, \"8\": {\"O\": 1.0}, \"9\": {\"O\": 1.0}, \"10\": {\"O\": 1.0}, \"11\": {\"O\": 1.0}, \"12\": {\"O\": 1.0}, \"13\": {\"O\": 1.0}, \"14\": {\"O\": 1.0}, \"15\": {\"O\": 1.0}, \"16\": {\"O\": 1.0}, \"17\": {\"O\": 1.0}, \"18\": {\"O\": 1.0}, \"19\": {\"O\": 1.0}}" pbc="T T T"
Li       0.00000000       0.00000000       5.15025226        0
Li       0.00000000       0.00000000       0.00000000        1
Al       0.00000000       3.27978204       5.15025226        2
Al       0.00000000       3.27978204       0.00000000        3
Al       2.84037456       1.63989102       5.15025226        4
Al       2.84037456       1.63989102       0.00000000        5
Br       0.00000000       0.00000000       2.57512613        6
Br       0.00000000       0.00000000       7.72537839        7
O        1.65603796       2.86834188       4.43243566        8
O        1.65603796       2.86834188       0.71781660        9
O        0.47170135       4.91967306       9.58268791       10
O        0.47170135       4.91967306       5.86806886       11
O       -1.65603796       2.86834188       9.58268791       12
O       -1.65603796       2.86834188       5.86806886       13
O       -1.18433661       2.05133117       4.43243566       14
O       -1.18433661       2.05133117       0.71781660       15
O        1.18433661       2.05133117       9.58268791       16
O        1.18433661       2.05133117       5.86806886       17
O        2.36867321       0.00000000       4.43243566       18
O        2.36867321       0.00000000       0.71781660       19
