32
Lattice="6.1690806554353 0.0 0.0 0.0 24.183464929796 0.0 0.0 0.0 5.8714119511364" Properties=species:S:1:pos:R:3:spacegroup_kinds:I:1 spacegroup="P 1" unit_cell=conventional occupancy="_JSON {\"0\": {\"Ca\": 1.0}, \"1\": {\"Ca\": 1.0}, \"2\": {\"Ca\": 1.0}, \"3\": {\"Ca\": 1.0}, \"4\": {\"Ca\": 1.0}, \"5\": {\"Ca\": 1.0}, \"6\": {\"Ca\": 1.0}, \"7\": {\"Ca\": 1.0}, \"8\": {\"Ca\": 1.0}, \"9\": {\"Ca\": 1.0}, \"10\": {\"Ca\": 1.0}, \"11\": {\"Ca\": 1.0}, \"12\": {\"Ca\": 1.0}, \"13\": {\"Ca\": 1.0}, \"14\": {\"Ca\": 1.0}, \"15\": {\"Ca\": 1.0}, \"16\": {\"Mg\": 1.0}, \"17\": {\"Mg\": 1.0}, \"18\": {\"Mg\": 1.0}, \"19\": {\"Mg\": 1.0}, \"20\": {\"Al\": 1.0}, \"21\": {\"Al\": 1.0}, \"22\": {\"Al\": 1.0}, \"23\": {\"Al\": 1.0}, \"24\": {\"Al\": 1.0}, \"25\": {\"Al\": 1.0}, \"26\": {\"Al\": 1.0}, \"27\": {\"Al\": 1.0}, \"28\": {\"Al\": 1.0}, \"29\": {\"Al\": 1.0}, \"30\": {\"Al\": 1.0}, \"31\": {\"Al\": 1.0}}" pbc="T T T"
Ca       5.67420561      15.53526322       4.40355896        0
Ca       5.67420561      20.73993418       1.46785299        1
Ca       0.49487504       3.44353075       4.40355896        2
Ca       0.49487504       8.64820171       1.46785299        3
Ca       4.67218993       9.10006124       4.40355896        4
Ca       4.67218993       2.99167123       1.46785299        5
Ca       1.49689073      21.19179370       4.40355896        6
Ca       1.49689073      15.08340369       1.46785299        7
Ca       4.23804440      19.10451578       4.40355896        8
Ca       4.23804440      17.17068162       1.46785299        9
Ca       1.93103626       7.01278331       4.40355896       10
Ca       1.93103626       5.07894915       1.46785299       11
Ca       3.05721152      13.19987102       4.40355896       12
Ca       3.05721152      23.07532638       1.46785299       13
Ca       3.11186914       1.10813855       4.40355896       14
Ca       3.11186914      10.98359391       1.46785299       15
Mg       0.00000000       0.00000000       0.00000000       16
Mg       0.00000000       0.00000000       2.93570598       17
Mg       0.00000000      12.09173246       2.93570598       18
Mg       0.00000000      12.09173246       0.00000000       19
Al       4.58334842      22.34909713       4.40355896       20
Al       4.58334842      13.92610026       1.46785299       21
Al       1.58573223      10.25736467       4.40355896       22
Al       1.58573223       1.83436780       1.46785299       23
Al       2.55285700      16.37581505       4.40355896       24
Al       2.55285700      19.89938234       1.46785299       25
Al       3.61622365       4.28408259       4.40355896       26
Al       3.61622365       7.80764988       1.46785299       27
Al       1.03816851      18.13759870       0.00000000       28
Al       1.03816851      18.13759870       2.93570598       29
Al       5.13091214       6.04586623       0.00000000       30
Al       5.13091214       6.04586623       2.93570598       31
