44
Lattice="9.3563205518041 0.0 0.0 0.0 9.3563205518041 0.0 0.0 0.0 9.3563205518041" Properties=species:S:1:pos:R:3:spacegroup_kinds:I:1 spacegroup="P 1" unit_cell=conventional occupancy="_JSON {\"0\": {\"K\": 1.0}, \"1\": {\"K\": 1.0}, \"2\": {\"K\": 1.0}, \"3\": {\"K\": 1.0}, \"4\": {\"K\": 1.0}, \"5\": {\"K\": 1.0}, \"6\": {\"K\": 1.0}, \"7\": {\"K\": 1.0}, \"8\": {\"Al\": 1.0}, \"9\": {\"Al\": 1.0}, \"10\": {\"Al\": 1.0}, \"11\": {\"Al\": 1.0}, \"12\": {\"Al\": 1.0}, \"13\": {\"Al\": 1.0}, \"14\": {\"Si\": 1.0}, \"15\": {\"Si\": 1.0}, \"16\": {\"Si\": 1.0}, \"17\": {\"Si\": 1.0}, \"18\": {\"Si\": 1.0}, \"19\": {\"Si\": 1.0}, \"20\": {\"O\": 1.0}, \"21\": {\"O\": 1.0}, \"22\": {\"O\": 1.0}, \"23\": {\"O\": 1.0}, \"24\": {\"O\": 1.0}, \"25\": {\"O\": 1.0}, \"26\": {\"O\": 1.0}, \"27\": {\"O\": 1.0}, \"28\": {\"O\": 1.0}, \"29\": {\"O\": 1.0}, \"30\": {\"O\": 1.0}, \"31\": {\"O\": 1.0}, \"32\": {\"O\": 1.0}, \"33\": {\"O\": 1.0}, \"34\": {\"O\": 1.0}, \"35\": {\"O\": 1.0}, \"36\": {\"O\": 1.0}, \"37\": {\"O\": 1.0}, \"38\": {\"O\": 1.0}, \"39\": {\"O\": 1.0}, \"40\": {\"O\": 1.0}, \"41\": {\"O\": 1.0}, \"42\": {\"O\": 1.0}, \"43\": {\"O\": 1.0}}" pbc="T T T"
K        2.95994523       2.95994523       6.39637532        0
K        2.95994523       6.39637532       2.95994523        1
K        7.63810551       7.63810551       1.71821505        2
K        7.63810551       1.71821505       7.63810551        3
K        6.39637532       2.95994523       2.95994523        4
K        6.39637532       6.39637532       6.39637532        5
K        1.71821505       7.63810551       7.63810551        6
K        1.71821505       1.71821505       1.71821505        7
Al       2.33908014       0.00000000       4.67816028        8
Al       7.01724041       0.00000000       4.67816028        9
Al       4.67816028       2.33908014       0.00000000       10
Al       4.67816028       7.01724041       0.00000000       11
Al       0.00000000       4.67816028       2.33908014       12
Al       0.00000000       4.67816028       7.01724041       13
Si       2.33908014       4.67816028       0.00000000       14
Si       7.01724041       4.67816028       0.00000000       15
Si       0.00000000       2.33908014       4.67816028       16
Si       0.00000000       7.01724041       4.67816028       17
Si       4.67816028       0.00000000       2.33908014       18
Si       4.67816028       0.00000000       7.01724041       19
O        3.32700918       0.23212462       6.11772923       20
O        3.32700918       9.12419593       3.23859133       21
O        8.00516946       7.91675160       4.44603565       22
O        8.00516946       1.43956895       4.91028490       23
O        3.23859133       3.32700918       9.12419593       24
O        3.23859133       6.02931137       0.23212462       25
O        7.91675160       4.91028490       1.35115110       26
O        7.91675160       4.44603565       8.00516946       27
O        0.23212462       3.23859133       6.02931137       28
O        0.23212462       6.11772923       3.32700918       29
O        4.91028490       8.00516946       1.43956895       30
O        4.91028490       1.35115110       7.91675160       31
O        6.02931137       0.23212462       3.23859133       32
O        6.02931137       9.12419593       6.11772923       33
O        1.35115110       7.91675160       4.91028490       34
O        1.35115110       1.43956895       4.44603565       35
O        6.11772923       3.32700918       0.23212462       36
O        6.11772923       6.02931137       9.12419593       37
O        1.43956895       4.91028490       8.00516946       38
O        1.43956895       4.44603565       1.35115110       39
O        9.12419593       3.23859133       3.32700918       40
O        9.12419593       6.11772923       6.02931137       41
O        4.44603565       8.00516946       7.91675160       42
O        4.44603565       1.35115110       1.43956895       43
