44
Lattice="9.0338092385 0.0 0.0 0.0 9.0338092385 0.0 0.0 0.0 9.0338092385" Properties=species:S:1:pos:R:3:spacegroup_kinds:I:1 spacegroup="P 1" unit_cell=conventional occupancy="_JSON {\"0\": {\"Na\": 1.0}, \"1\": {\"Na\": 1.0}, \"2\": {\"Na\": 1.0}, \"3\": {\"Na\": 1.0}, \"4\": {\"Na\": 1.0}, \"5\": {\"Na\": 1.0}, \"6\": {\"Na\": 1.0}, \"7\": {\"Na\": 1.0}, \"8\": {\"Al\": 1.0}, \"9\": {\"Al\": 1.0}, \"10\": {\"Al\": 1.0}, \"11\": {\"Al\": 1.0}, \"12\": {\"Al\": 1.0}, \"13\": {\"Al\": 1.0}, \"14\": {\"Si\": 1.0}, \"15\": {\"Si\": 1.0}, \"16\": {\"Si\": 1.0}, \"17\": {\"Si\": 1.0}, \"18\": {\"Si\": 1.0}, \"19\": {\"Si\": 1.0}, \"20\": {\"O\": 1.0}, \"21\": {\"O\": 1.0}, \"22\": {\"O\": 1.0}, \"23\": {\"O\": 1.0}, \"24\": {\"O\": 1.0}, \"25\": {\"O\": 1.0}, \"26\": {\"O\": 1.0}, \"27\": {\"O\": 1.0}, \"28\": {\"O\": 1.0}, \"29\": {\"O\": 1.0}, \"30\": {\"O\": 1.0}, \"31\": {\"O\": 1.0}, \"32\": {\"O\": 1.0}, \"33\": {\"O\": 1.0}, \"34\": {\"O\": 1.0}, \"35\": {\"O\": 1.0}, \"36\": {\"O\": 1.0}, \"37\": {\"O\": 1.0}, \"38\": {\"O\": 1.0}, \"39\": {\"O\": 1.0}, \"40\": {\"O\": 1.0}, \"41\": {\"O\": 1.0}, \"42\": {\"O\": 1.0}, \"43\": {\"O\": 1.0}}" pbc="T T T"
Na       2.84295328       6.19085596       2.84295328        0
Na       6.19085596       2.84295328       2.84295328        1
Na       2.84295328       2.84295328       6.19085596        2
Na       6.19085596       6.19085596       6.19085596        3
Na       7.35985790       7.35985790       1.67395134        4
Na       1.67395134       7.35985790       7.35985790        5
Na       7.35985790       1.67395134       7.35985790        6
Na       1.67395134       1.67395134       1.67395134        7
Al       0.00000000       4.51690462       2.25845231        8
Al       4.51690462       6.77535693       0.00000000        9
Al       2.25845231       0.00000000       4.51690462       10
Al       4.51690462       2.25845231       0.00000000       11
Al       6.77535693       0.00000000       4.51690462       12
Al       0.00000000       4.51690462       6.77535693       13
Si       4.51690462       0.00000000       2.25845231       14
Si       0.00000000       6.77535693       4.51690462       15
Si       2.25845231       4.51690462       0.00000000       16
Si       0.00000000       2.25845231       4.51690462       17
Si       6.77535693       4.51690462       0.00000000       18
Si       4.51690462       0.00000000       6.77535693       19
O        3.25066430       8.49987918       3.15842669       20
O        0.53393006       5.87538255       3.25066430       21
O        3.15842669       5.78314494       0.53393006       22
O        5.78314494       0.53393006       3.15842669       23
O        8.49987918       3.15842669       3.25066430       24
O        5.87538255       3.25066430       0.53393006       25
O        3.25066430       0.53393006       5.87538255       26
O        0.53393006       3.15842669       5.78314494       27
O        3.15842669       3.25066430       8.49987918       28
O        5.78314494       8.49987918       5.87538255       29
O        8.49987918       5.87538255       5.78314494       30
O        5.87538255       5.78314494       8.49987918       31
O        7.76756892       7.67533131       3.98297456       32
O        5.05083467       7.76756892       1.35847793       33
O        7.67533131       5.05083467       1.26624032       34
O        1.26624032       7.67533131       5.05083467       35
O        3.98297456       7.76756892       7.67533131       36
O        1.35847793       5.05083467       7.76756892       37
O        7.76756892       1.35847793       5.05083467       38
O        5.05083467       1.26624032       7.67533131       39
O        7.67533131       3.98297456       7.76756892       40
O        1.26624032       1.35847793       3.98297456       41
O        3.98297456       1.26624032       1.35847793       42
O        1.35847793       3.98297456       1.26624032       43
