48
Lattice="15.61033560125852 0.0 0.0 3.6719346651320066 11.770661771768868 0.0 2.691997933865739 2.09004247850609 8.525067332354999" Properties=species:S:1:pos:R:3:spacegroup_kinds:I:1 spacegroup="P 1" unit_cell=conventional occupancy="_JSON {\"0\": {\"K\": 1.0}, \"1\": {\"K\": 1.0}, \"2\": {\"K\": 1.0}, \"3\": {\"K\": 1.0}, \"4\": {\"K\": 1.0}, \"5\": {\"K\": 1.0}, \"6\": {\"K\": 1.0}, \"7\": {\"K\": 1.0}, \"8\": {\"K\": 1.0}, \"9\": {\"K\": 1.0}, \"10\": {\"K\": 1.0}, \"11\": {\"K\": 1.0}, \"12\": {\"K\": 1.0}, \"13\": {\"K\": 1.0}, \"14\": {\"K\": 1.0}, \"15\": {\"K\": 1.0}, \"16\": {\"K\": 1.0}, \"17\": {\"K\": 1.0}, \"18\": {\"K\": 1.0}, \"19\": {\"K\": 1.0}, \"20\": {\"K\": 1.0}, \"21\": {\"K\": 1.0}, \"22\": {\"K\": 1.0}, \"23\": {\"K\": 1.0}, \"24\": {\"Al\": 1.0}, \"25\": {\"Al\": 1.0}, \"26\": {\"Al\": 1.0}, \"27\": {\"Al\": 1.0}, \"28\": {\"Al\": 1.0}, \"29\": {\"Al\": 1.0}, \"30\": {\"Al\": 1.0}, \"31\": {\"Al\": 1.0}, \"32\": {\"As\": 1.0}, \"33\": {\"As\": 1.0}, \"34\": {\"As\": 1.0}, \"35\": {\"As\": 1.0}, \"36\": {\"As\": 1.0}, \"37\": {\"As\": 1.0}, \"38\": {\"As\": 1.0}, \"39\": {\"As\": 1.0}, \"40\": {\"As\": 1.0}, \"41\": {\"As\": 1.0}, \"42\": {\"As\": 1.0}, \"43\": {\"As\": 1.0}, \"44\": {\"As\": 1.0}, \"45\": {\"As\": 1.0}, \"46\": {\"As\": 1.0}, \"47\": {\"As\": 1.0}}" pbc="T T T"
K        5.96041234       4.80690747       6.87319554        0
K       16.01385586       9.05379678       1.65187179        1
K       13.47142939       1.55495088       1.57087885        2
K        8.50283881      12.30575337       6.95418849        3
K       15.74120390       4.66567605       0.13108961        4
K        6.23306430       9.19502820       8.39397772        5
K       11.15727553       7.58901709       2.71236379        6
K       10.81699267       6.27168716       5.81270354        7
K        6.94984469       1.87742556       4.08472452        8
K       15.02442351      11.98327869       4.44034281        9
K       18.59830100      10.48182883       6.62005656       10
K        3.37596720       3.37887543       1.90501077       11
K       14.20945359       6.77047773       8.31301162       12
K        7.76481461       7.09022652       0.21205571       13
K       14.15036577       2.67536906       7.18422197       14
K        7.82390243      11.18533519       1.34084536       15
K       16.50567063       8.21186085       5.58829233       16
K        5.46859757       5.64884340       2.93677500       17
K       16.09888455       2.49890171       4.18694994       18
K        5.87538365      11.36180254       4.33811739       19
K       10.09054337       3.18128179       7.07032027       20
K       11.88372484      10.67942246       1.45474706       21
K       14.56009390       5.84644958       3.98954702       22
K        7.41417430       8.01425467       4.53552031       23
Al      10.47168561       3.48772430       3.09550340       24
Al      11.50258259      10.37297995       5.42956393       25
Al      18.14455382       3.08972536       7.20818638       26
Al       3.82971438      10.77097889       1.31688095       27
Al      18.39475283       5.45724799       5.06524811       28
Al       3.57951537       8.40345626       3.45981922       29
Al       8.06656311       3.64067714       1.26919023       30
Al      13.90770509      10.22002711       7.25587710       31
As      20.74746146      12.60182253       7.70658705       32
As       1.22680674       1.25888172       0.81848029       33
As       8.74618718       5.20496012       3.07174868       34
As      13.22808102       8.65574413       5.45331866       35
As       9.77793931       1.86409764       1.35545647       36
As      12.19632889      11.99660661       7.16961086       37
As      13.15414759       7.85884564       0.07085669       38
As       8.82012061       6.00185861       8.45421065       39
As       3.85953686       3.13955395       5.03649248       40
As      18.11473134      10.72115030       3.48857485       41
As      16.49030138       4.94529596       6.68270852       42
As       5.48396682       8.91540829       1.84235882       43
As      17.66892207       6.39210980       2.79702358       44
As       4.30534613       7.46859445       5.72804376       45
As      12.39238390       3.44230550       4.45962428       46
As       9.58188430      10.41839875       4.06544305       47
