32
Lattice="9.675110657786622 0.0 0.0 0.7320219975256977 9.647378402216571 0.0 -6.247473861234447 -3.6975714384492577 6.395686206434218" Properties=species:S:1:pos:R:3:spacegroup_kinds:I:1 spacegroup="P 1" unit_cell=conventional occupancy="_JSON {\"0\": {\"Li\": 1.0}, \"1\": {\"Li\": 1.0}, \"2\": {\"Li\": 1.0}, \"3\": {\"Li\": 1.0}, \"4\": {\"Li\": 1.0}, \"5\": {\"Li\": 1.0}, \"6\": {\"Li\": 1.0}, \"7\": {\"Li\": 1.0}, \"8\": {\"Al\": 1.0}, \"9\": {\"Al\": 1.0}, \"10\": {\"Al\": 1.0}, \"11\": {\"Al\": 1.0}, \"12\": {\"Al\": 1.0}, \"13\": {\"Al\": 1.0}, \"14\": {\"Al\": 1.0}, \"15\": {\"Al\": 1.0}, \"16\": {\"As\": 1.0}, \"17\": {\"As\": 1.0}, \"18\": {\"As\": 1.0}, \"19\": {\"As\": 1.0}, \"20\": {\"As\": 1.0}, \"21\": {\"As\": 1.0}, \"22\": {\"As\": 1.0}, \"23\": {\"As\": 1.0}, \"24\": {\"As\": 1.0}, \"25\": {\"As\": 1.0}, \"26\": {\"As\": 1.0}, \"27\": {\"As\": 1.0}, \"28\": {\"As\": 1.0}, \"29\": {\"As\": 1.0}, \"30\": {\"As\": 1.0}, \"31\": {\"As\": 1.0}}" pbc="T T T"
Li       5.39765894       6.68149549       4.53823510        0
Li       5.44920804       2.49151845       0.13702856        1
Li       2.53707714      -0.66969390       5.05529421        2
Li       4.61048413       3.39629389       3.06081455        3
Li      -1.23800015      -0.73168853       1.85745111        4
Li      -1.28954924       3.45828851       6.25865765        5
Li       1.62258165       6.61950087       1.34039200        6
Li      -0.45082533       2.55351308       3.33487166        7
Al       3.20004110       4.11644001       5.31550210        8
Al       1.21016283       1.56309078       5.97483045        9
Al       0.54512353       6.98043873       4.27802721       10
Al      -2.15146174       5.18945137       3.61869886       11
Al       0.95961769       1.83336695       1.08018411       12
Al       2.94949596       4.38671618       0.42085576       13
Al       3.61453526      -1.03063176       2.11765900       14
Al       6.31112053       0.76035559       2.77698735       15
As       2.07982940       2.97490348       3.19784310       16
As      10.04112166       4.82368920       0.00000000       17
As      -0.67789653       5.94980696       6.39568621       18
As      -2.39171493       7.79859268       3.19784310       19
As       7.44251923       7.62693782       0.42073588       20
As       0.20688749       4.99534407       2.77710723       21
As      -3.28286044      -1.67713085       5.97495033       22
As       3.95277130       0.95446290       3.61857898       23
As       2.98066235       6.57562599       4.79676465       24
As       6.38256277       4.19787018       1.59892155       25
As       1.17899644      -0.62581902       1.59892155       26
As      -2.22290398       1.75193679       4.79676465       27
As      -3.83694253       4.13911099       5.35587994       28
As       0.03530907      -0.03808974       4.23764937       29
As       7.99660133       1.81069598       1.03980627       30
As       4.12434973       5.98789670       2.15803684       31
