11
Lattice="10.758025337661314 0.0 0.0 -10.3554134609072 2.915565334446269 0.0 0.0 0.0 2.9411073257152" Properties=species:S:1:pos:R:3:spacegroup_kinds:I:1 spacegroup="P 1" unit_cell=conventional occupancy="_JSON {\"0\": {\"B\": 1.0}, \"1\": {\"B\": 1.0}, \"2\": {\"B\": 1.0}, \"3\": {\"B\": 1.0}, \"4\": {\"B\": 1.0}, \"5\": {\"B\": 1.0}, \"6\": {\"Al\": 1.0}, \"7\": {\"Cr\": 1.0}, \"8\": {\"Cr\": 1.0}, \"9\": {\"Cr\": 1.0}, \"10\": {\"Cr\": 1.0}}" pbc="T T T"
B       -8.14383871       2.61016787       0.00000000        0
B        8.54645058       0.30539747       0.00000000        1
B       -4.65308005       2.12812726       0.00000000        2
B        5.05569193       0.78743808       0.00000000        3
B       -2.93260896       1.89054654       0.00000000        4
B        3.33522083       1.02501879       0.00000000        5
Al       0.00000000       0.00000000       0.00000000        6
Cr      -1.43223640       1.68335935       1.47055366        7
Cr       1.83484828       1.23220599       1.47055366        8
Cr      -6.37325785       2.36566747       1.47055366        9
Cr       6.77586972       0.54989786       1.47055366       10
