16
Lattice="3.7152997587607 0.0 0.0 0.0 3.7152997587607 0.0 0.0 0.0 14.884398886441" Properties=species:S:1:pos:R:3:spacegroup_kinds:I:1 spacegroup="P 1" unit_cell=conventional occupancy="_JSON {\"0\": {\"Ca\": 1.0}, \"1\": {\"Ca\": 1.0}, \"2\": {\"Ca\": 1.0}, \"3\": {\"Ca\": 1.0}, \"4\": {\"Al\": 1.0}, \"5\": {\"Al\": 1.0}, \"6\": {\"Fe\": 1.0}, \"7\": {\"Fe\": 1.0}, \"8\": {\"P\": 1.0}, \"9\": {\"P\": 1.0}, \"10\": {\"O\": 1.0}, \"11\": {\"O\": 1.0}, \"12\": {\"O\": 1.0}, \"13\": {\"O\": 1.0}, \"14\": {\"O\": 1.0}, \"15\": {\"O\": 1.0}}" pbc="T T T"
Ca       1.85764988       0.00000000       8.69220067        0
Ca       0.00000000       1.85764988       6.19219822        1
Ca       1.85764988       0.00000000      12.08506868        2
Ca       0.00000000       1.85764988       2.79933021        3
Al       1.85764988       0.00000000       4.60995323        4
Al       0.00000000       1.85764988      10.27444566        5
Fe       0.00000000       0.00000000       0.00000000        6
Fe       1.85764988       1.85764988       0.00000000        7
P        1.85764988       0.00000000       1.18834879        8
P        0.00000000       1.85764988      13.69605009        9
O        0.00000000       0.00000000       4.28663462       10
O        1.85764988       1.85764988      10.59776427       11
O        1.85764988       1.85764988       4.28663462       12
O        0.00000000       0.00000000      10.59776427       13
O        1.85764988       0.00000000       6.42735809       14
O        0.00000000       1.85764988       8.45704080       15
