48
Lattice="15.236070448111382 0.0 0.0 3.567589129305851 11.452256720493349 0.0 2.5753126603755945 2.1100114487369774 8.310158660089266" Properties=species:S:1:pos:R:3:spacegroup_kinds:I:1 spacegroup="P 1" unit_cell=conventional occupancy="_JSON {\"0\": {\"K\": 1.0}, \"1\": {\"K\": 1.0}, \"2\": {\"K\": 1.0}, \"3\": {\"K\": 1.0}, \"4\": {\"K\": 1.0}, \"5\": {\"K\": 1.0}, \"6\": {\"K\": 1.0}, \"7\": {\"K\": 1.0}, \"8\": {\"K\": 1.0}, \"9\": {\"K\": 1.0}, \"10\": {\"K\": 1.0}, \"11\": {\"K\": 1.0}, \"12\": {\"K\": 1.0}, \"13\": {\"K\": 1.0}, \"14\": {\"K\": 1.0}, \"15\": {\"K\": 1.0}, \"16\": {\"K\": 1.0}, \"17\": {\"K\": 1.0}, \"18\": {\"K\": 1.0}, \"19\": {\"K\": 1.0}, \"20\": {\"K\": 1.0}, \"21\": {\"K\": 1.0}, \"22\": {\"K\": 1.0}, \"23\": {\"K\": 1.0}, \"24\": {\"Al\": 1.0}, \"25\": {\"Al\": 1.0}, \"26\": {\"Al\": 1.0}, \"27\": {\"Al\": 1.0}, \"28\": {\"Al\": 1.0}, \"29\": {\"Al\": 1.0}, \"30\": {\"Al\": 1.0}, \"31\": {\"Al\": 1.0}, \"32\": {\"P\": 1.0}, \"33\": {\"P\": 1.0}, \"34\": {\"P\": 1.0}, \"35\": {\"P\": 1.0}, \"36\": {\"P\": 1.0}, \"37\": {\"P\": 1.0}, \"38\": {\"P\": 1.0}, \"39\": {\"P\": 1.0}, \"40\": {\"P\": 1.0}, \"41\": {\"P\": 1.0}, \"42\": {\"P\": 1.0}, \"43\": {\"P\": 1.0}, \"44\": {\"P\": 1.0}, \"45\": {\"P\": 1.0}, \"46\": {\"P\": 1.0}, \"47\": {\"P\": 1.0}}" pbc="T T T"
K        5.78937369       4.76925768       6.75362929        0
K       15.58959855       8.79301049       1.55652937        1
K       13.16348973       1.54836191       1.56728346        2
K        8.21548251      12.01390626       6.74287520        3
K       15.40467518       4.53907733       0.13945193        4
K        5.97429706       9.02319084       8.17070673        5
K       10.89996441       7.39856598       2.62951615        6
K       10.47900783       6.16370219       5.68064251        7
K        6.70417817       1.86973384       4.02402415        8
K       14.67479407      11.69253433       4.28613451        9
K       18.09453931      10.30996219       6.40400448       10
K        3.28443293       3.25230598       1.90615418       11
K       13.85569977       6.67415088       8.07689331       12
K        7.52327247       6.88811729       0.23326535       13
K       13.77219288       2.73039446       7.04000391       14
K        7.60677936      10.83187370       1.27015475       15
K       16.04863708       8.07121792       5.44324761       16
K        5.33033515       5.49105025       2.86691105       17
K       15.71010580       2.49232914       4.14702320       18
K        5.66886644      11.06993903       4.16313546       19
K        9.79724187       3.09979382       6.86791996       20
K       11.58173037      10.46247434       1.44223870       21
K       14.18626749       5.73276363       3.93440393       22
K        7.19270474       7.82950454       4.37575473       23
Al      10.22370479       3.44321249       3.02842881       24
Al      11.15526745      10.11905568       5.28172985       25
Al      17.68196089       3.08854337       7.04985573       26
Al       3.69701135      10.47372480       1.26030293       27
Al      17.92814498       5.38152511       4.95242233       28
Al       3.45082726       8.18074306       3.35773633       29
Al       7.90310825       3.52174423       1.26535797       30
Al      13.47586399      10.04052394       7.04480069       31
P       20.20326249      12.37387926       7.49757969       32
P        1.17570975       1.18838891       0.81257897       33
P        8.54360783       5.06402908       2.96309665       34
P       12.83536441       8.49823909       5.34706201       35
P        9.58530176       1.86856916       1.37070585       36
P       11.79367047      11.69369901       6.93945281       37
P       15.35156020       9.85011999       8.30696821       38
P        6.02741204       3.71214818       0.00319045       39
P        3.73490357       3.16771032       4.97446417       40
P       17.64406866      10.39455785       3.33569449       41
P       16.11686961       4.89169681       6.52750729       42
P        5.26210262       8.67057135       1.78265137       43
P       17.23747849       6.23437509       2.75881416       44
P        4.14149374       7.32789308       5.55134450       45
P       12.04822589       3.40721260       4.35752696       46
P        9.33074635      10.15505557       3.95263170       47
