56
Lattice="11.3531597306 0.0 0.0 0.0 14.4728526432 0.0 0.0 0.0 11.2352507842" Properties=species:S:1:pos:R:3:spacegroup_kinds:I:1 spacegroup="P 1" unit_cell=conventional occupancy="_JSON {\"0\": {\"K\": 1.0}, \"1\": {\"K\": 1.0}, \"2\": {\"K\": 1.0}, \"3\": {\"K\": 1.0}, \"4\": {\"K\": 1.0}, \"5\": {\"K\": 1.0}, \"6\": {\"K\": 1.0}, \"7\": {\"K\": 1.0}, \"8\": {\"K\": 1.0}, \"9\": {\"K\": 1.0}, \"10\": {\"K\": 1.0}, \"11\": {\"K\": 1.0}, \"12\": {\"As\": 1.0}, \"13\": {\"As\": 1.0}, \"14\": {\"As\": 1.0}, \"15\": {\"As\": 1.0}, \"16\": {\"As\": 1.0}, \"17\": {\"As\": 1.0}, \"18\": {\"As\": 1.0}, \"19\": {\"As\": 1.0}, \"20\": {\"As\": 1.0}, \"21\": {\"As\": 1.0}, \"22\": {\"As\": 1.0}, \"23\": {\"As\": 1.0}, \"24\": {\"As\": 1.0}, \"25\": {\"As\": 1.0}, \"26\": {\"As\": 1.0}, \"27\": {\"As\": 1.0}, \"28\": {\"As\": 1.0}, \"29\": {\"As\": 1.0}, \"30\": {\"As\": 1.0}, \"31\": {\"As\": 1.0}, \"32\": {\"As\": 1.0}, \"33\": {\"As\": 1.0}, \"34\": {\"As\": 1.0}, \"35\": {\"As\": 1.0}, \"36\": {\"As\": 1.0}, \"37\": {\"As\": 1.0}, \"38\": {\"As\": 1.0}, \"39\": {\"As\": 1.0}, \"40\": {\"As\": 1.0}, \"41\": {\"As\": 1.0}, \"42\": {\"As\": 1.0}, \"43\": {\"As\": 1.0}, \"44\": {\"As\": 1.0}, \"45\": {\"As\": 1.0}, \"46\": {\"As\": 1.0}, \"47\": {\"As\": 1.0}, \"48\": {\"As\": 1.0}, \"49\": {\"As\": 1.0}, \"50\": {\"As\": 1.0}, \"51\": {\"As\": 1.0}, \"52\": {\"As\": 1.0}, \"53\": {\"As\": 1.0}, \"54\": {\"As\": 1.0}, \"55\": {\"As\": 1.0}}" pbc="T T T"
K        2.94015279       7.38300676       6.54453541        0
K        2.94015279       7.08984589       0.92691002        1
K        8.61673265       0.14658043      10.30834077        2
K        8.61673265      14.32627221       4.69071538        3
K        8.41300694       7.38300676      10.30834077        4
K        8.41300694       7.08984589       4.69071538        5
K        2.73642708       0.14658043       6.54453541        6
K        2.73642708      14.32627221       0.92691002        7
K        5.67657987      11.27947827       8.42643809        8
K        5.67657987       3.19337437       2.80881270        9
K        0.00000000       4.04305195       8.42643809       10
K        0.00000000      10.42980069       2.80881270       11
As       4.70736048       5.70000451       9.20340249       12
As       4.70736048       8.77284813       3.58577709       13
As      10.38394034      12.93643083       7.64947369       14
As      10.38394034       1.53642181       2.03184830       15
As       6.64579925       5.70000451       7.64947369       16
As       6.64579925       8.77284813       2.03184830       17
As       0.96921939      12.93643083       9.20340249       18
As       0.96921939       1.53642181       3.58577709       19
As       4.52840996       3.12482458       6.29558451       20
As       4.52840996      11.34802807       0.67795912       21
As      10.20498982      10.36125090      10.55729166       22
As      10.20498982       4.11160174       4.93966627       23
As       6.82474977       3.12482458      10.55729166       24
As       6.82474977      11.34802807       4.93966627       25
As       1.14816991      10.36125090       6.29558451       26
As       1.14816991       4.11160174       0.67795912       27
As       3.57028291       3.56057252       8.57457799       28
As       3.57028291      10.91228012       2.95695260       29
As       9.24686278      10.79699885       8.27829818       30
As       9.24686278       3.67585380       2.66067279       31
As       7.78287682       3.56057252       8.27829818       32
As       7.78287682      10.91228012       2.66067279       33
As       2.10629695      10.79699885       8.57457799       34
As       2.10629695       3.67585380       2.95695260       35
As       5.67657987       0.27968153       8.42643809       36
As       5.67657987      14.19317112       2.80881270       37
As       0.00000000       7.51610785       8.42643809       38
As       0.00000000       6.95674479       2.80881270       39
As       5.44241142       5.25878646       5.58917057       40
As       5.44241142       9.21406618      11.20679596       41
As      11.11899129      12.49521278       0.02845482       42
As      11.11899129       1.97763986       5.64608022       43
As       5.91074831       5.25878646       0.02845482       44
As       5.91074831       9.21406618       5.64608022       45
As       0.23416844      12.49521278       5.58917057       46
As       0.23416844       1.97763986      11.20679596       47
As       4.75608130       1.88224237      10.00073318       48
As       4.75608130      12.59061028       4.38310779       49
As      10.43266116       9.11866869       6.85214300       50
As      10.43266116       5.35418395       1.23451760       51
As       6.59707844       1.88224237       6.85214300       52
As       6.59707844      12.59061028       1.23451760       53
As       0.92049857       9.11866869      10.00073318       54
As       0.92049857       5.35418395       4.38310779       55
