32
Lattice="10.7485083642 0.0 0.0 0.0 8.1849717386 0.0 0.0 0.0 7.2568977999" Properties=species:S:1:pos:R:3:spacegroup_kinds:I:1 spacegroup="P 1" unit_cell=conventional occupancy="_JSON {\"0\": {\"Sc\": 1.0}, \"1\": {\"Sc\": 1.0}, \"2\": {\"Sc\": 1.0}, \"3\": {\"Sc\": 1.0}, \"4\": {\"Sc\": 1.0}, \"5\": {\"Sc\": 1.0}, \"6\": {\"Sc\": 1.0}, \"7\": {\"Sc\": 1.0}, \"8\": {\"Sc\": 1.0}, \"9\": {\"Sc\": 1.0}, \"10\": {\"Sc\": 1.0}, \"11\": {\"Sc\": 1.0}, \"12\": {\"Sc\": 1.0}, \"13\": {\"Sc\": 1.0}, \"14\": {\"Sc\": 1.0}, \"15\": {\"Sc\": 1.0}, \"16\": {\"Sc\": 1.0}, \"17\": {\"Sc\": 1.0}, \"18\": {\"Sc\": 1.0}, \"19\": {\"Sc\": 1.0}, \"20\": {\"As\": 1.0}, \"21\": {\"As\": 1.0}, \"22\": {\"As\": 1.0}, \"23\": {\"As\": 1.0}, \"24\": {\"As\": 1.0}, \"25\": {\"As\": 1.0}, \"26\": {\"As\": 1.0}, \"27\": {\"As\": 1.0}, \"28\": {\"As\": 1.0}, \"29\": {\"As\": 1.0}, \"30\": {\"As\": 1.0}, \"31\": {\"As\": 1.0}}" pbc="T T T"
Sc       9.98869692       3.66163692       1.38553283        0
Sc       9.98869692       0.43084894       1.38553283        1
Sc       4.61444274       3.66163692       2.24291607        2
Sc       4.61444274       0.43084894       2.24291607        3
Sc       0.75981145       7.75412279       5.87136497        4
Sc       0.75981145       4.52333481       5.87136497        5
Sc       6.13406563       7.75412279       5.01398173        6
Sc       6.13406563       4.52333481       5.01398173        7
Sc      10.71032936       2.04624293       3.84470999        8
Sc       5.33607518       2.04624293       7.04063671        9
Sc       0.03817900       6.13872880       3.41218781       10
Sc       5.41243318       6.13872880       0.21626109       11
Sc       8.35400813       2.04624293       6.04884452       12
Sc       2.97975395       2.04624293       4.83650218       13
Sc       2.39450023       6.13872880       1.20805328       14
Sc       7.76875442       6.13872880       2.42039562       15
Sc       7.60030814       2.04624293       2.53399382       16
Sc       2.22605396       2.04624293       1.09445508       17
Sc       3.14820022       6.13872880       4.72290398       18
Sc       8.52245440       6.13872880       6.16244272       19
As       7.22653530       4.01290282       0.46482323       20
As       7.22653530       0.07958305       0.46482323       21
As       1.85228111       4.01290282       3.16362567       22
As       1.85228111       0.07958305       3.16362567       23
As       3.52197307       8.10538869       6.79207457       24
As       3.52197307       4.17206892       6.79207457       25
As       8.89622725       8.10538869       4.09327213       26
As       8.89622725       4.17206892       4.09327213       27
As       5.57299931       2.04624293       4.23504219       28
As       0.19874513       2.04624293       6.65030451       29
As       5.17550906       6.13872880       3.02185561       30
As      10.54976324       6.13872880       0.60659329       31
