16
Lattice="5.3033130541 0.0 0.0 0.0 7.9624589904 0.0 0.0 0.0 12.6591865417" Properties=species:S:1:pos:R:3:spacegroup_kinds:I:1 spacegroup="P 1" unit_cell=conventional occupancy="_JSON {\"0\": {\"Ca\": 1.0}, \"1\": {\"Ca\": 1.0}, \"2\": {\"Ca\": 1.0}, \"3\": {\"Ca\": 1.0}, \"4\": {\"Ca\": 1.0}, \"5\": {\"Ca\": 1.0}, \"6\": {\"Ca\": 1.0}, \"7\": {\"Ca\": 1.0}, \"8\": {\"As\": 1.0}, \"9\": {\"As\": 1.0}, \"10\": {\"As\": 1.0}, \"11\": {\"As\": 1.0}, \"12\": {\"As\": 1.0}, \"13\": {\"As\": 1.0}, \"14\": {\"As\": 1.0}, \"15\": {\"As\": 1.0}}" pbc="T T T"
Ca       4.67939702       5.52632511       1.03585096        0
Ca       3.27557256       6.41736338       7.36544423        1
Ca       2.02774049       6.41736338      11.62333558        2
Ca       0.62391603       5.52632511       5.29374231        3
Ca       0.62391603       2.43613388      11.62333558        4
Ca       2.02774049       1.54509561       5.29374231        5
Ca       3.27557256       1.54509561       1.03585096        6
Ca       4.67939702       2.43613388       7.36544423        7
As       4.71503186       0.27121701       5.22107737        8
As       3.23993772       3.71001248      11.55067064        9
As       2.06337534       3.71001248       7.43810917       10
As       0.58828119       0.27121701       1.10851590       11
As       0.58828119       7.69124198       7.43810917       12
As       2.06337534       4.25244651       1.10851590       13
As       3.23993772       4.25244651       5.22107737       14
As       4.71503186       7.69124198      11.55067064       15
