12
Lattice="4.8334067090093 0.0 0.0 0.0 6.2955804847984 0.0 0.0 0.0 6.8933976679798" Properties=species:S:1:pos:R:3:spacegroup_kinds:I:1 spacegroup="P 1" unit_cell=conventional occupancy="_JSON {\"0\": {\"Co\": 1.0}, \"1\": {\"Co\": 1.0}, \"2\": {\"Co\": 1.0}, \"3\": {\"Co\": 1.0}, \"4\": {\"As\": 1.0}, \"5\": {\"As\": 1.0}, \"6\": {\"As\": 1.0}, \"7\": {\"As\": 1.0}, \"8\": {\"S\": 1.0}, \"9\": {\"S\": 1.0}, \"10\": {\"S\": 1.0}, \"11\": {\"S\": 1.0}}" pbc="T T T"
Co       2.46429331       0.29335896       0.60024280        0
Co       2.36911340       6.00222153       4.04694163        1
Co       4.78581676       0.29335896       4.04694163        2
Co       0.04758995       6.00222153       0.60024280        3
As       3.63097189       4.95598282       2.32829969        4
As       1.20243482       1.33959766       5.77499853        5
As       3.61913818       4.95598282       5.77499853        6
As       1.21426853       1.33959766       2.32829969        7
S        0.79581786       4.56741447       4.04757595        8
S        4.03758885       1.72816602       0.60087711        9
S        1.62088549       4.56741447       0.60087711       10
S        3.21252122       1.72816602       4.04757595       11
