12
Lattice="6.1270614812761 0.0 0.0 0.0 3.6005251515261 0.0 0.0 0.0 7.1645505788879" Properties=species:S:1:pos:R:3:spacegroup_kinds:I:1 spacegroup="P 1" unit_cell=conventional occupancy="_JSON {\"0\": {\"V\": 1.0}, \"1\": {\"V\": 1.0}, \"2\": {\"V\": 1.0}, \"3\": {\"V\": 1.0}, \"4\": {\"Ni\": 1.0}, \"5\": {\"Ni\": 1.0}, \"6\": {\"Ni\": 1.0}, \"7\": {\"Ni\": 1.0}, \"8\": {\"As\": 1.0}, \"9\": {\"As\": 1.0}, \"10\": {\"As\": 1.0}, \"11\": {\"As\": 1.0}}" pbc="T T T"
V        5.95629414       2.70039386       4.69855712        0
V        2.89276340       2.70039386       6.04826875        1
V        0.17076734       0.90013129       2.46599346        2
V        3.23429808       0.90013129       1.11628183        3
Ni       5.22905441       2.70039386       0.44843636        4
Ni       2.16552366       2.70039386       3.13383893        5
Ni       0.89800708       0.90013129       6.71611422        6
Ni       3.96153782       0.90013129       4.03071165        7
As       4.47463347       2.70039386       2.62859422        8
As       1.41110273       2.70039386       0.95368107        9
As       1.65242801       0.90013129       4.53595636       10
As       4.71595875       0.90013129       6.21086951       11
