12
Lattice="8.45935538690663 0.0 0.0 5.495452785495714 6.431227895540137 0.0 0.0 0.0 5.6718945473085" Properties=species:S:1:pos:R:3:spacegroup_kinds:I:1 spacegroup="P 1" unit_cell=conventional occupancy="_JSON {\"0\": {\"As\": 1.0}, \"1\": {\"As\": 1.0}, \"2\": {\"As\": 1.0}, \"3\": {\"As\": 1.0}, \"4\": {\"As\": 1.0}, \"5\": {\"As\": 1.0}, \"6\": {\"S\": 1.0}, \"7\": {\"S\": 1.0}, \"8\": {\"S\": 1.0}, \"9\": {\"S\": 1.0}, \"10\": {\"S\": 1.0}, \"11\": {\"S\": 1.0}}" pbc="T T T"
As       5.68078932       6.02907519       2.41910531        0
As       8.27401886       0.40215271       5.25505258        1
As       9.19639445       3.91848878       5.58964884        2
As       5.00152008       1.98523447       5.58964884        3
As       4.75841372       2.51273912       2.75370156        4
As       8.95328809       4.44599343       2.75370156        5
S        7.35065051       2.40572471       0.24472102        6
S        6.60415766       4.02550318       3.08066829        7
S       12.12553698       4.42561802       2.57772699        8
S        2.71311543       0.08779931       2.57772699        9
S        1.82927119       2.00560988       5.41367426       10
S       11.24169274       6.34342859       5.41367426       11
