31
Lattice="7.243075238483839 0.0 0.0 0.13646821815407129 7.241789511976413 0.0 -2.334912718686562 2.3793276297948514 4.765725543853892" Properties=species:S:1:pos:R:3:spacegroup_kinds:I:1 spacegroup="P 1" unit_cell=conventional occupancy="_JSON {\"0\": {\"Na\": 1.0}, \"1\": {\"Na\": 1.0}, \"2\": {\"B\": 1.0}, \"3\": {\"B\": 1.0}, \"4\": {\"B\": 1.0}, \"5\": {\"B\": 1.0}, \"6\": {\"B\": 1.0}, \"7\": {\"B\": 1.0}, \"8\": {\"B\": 1.0}, \"9\": {\"B\": 1.0}, \"10\": {\"B\": 1.0}, \"11\": {\"B\": 1.0}, \"12\": {\"B\": 1.0}, \"13\": {\"B\": 1.0}, \"14\": {\"B\": 1.0}, \"15\": {\"B\": 1.0}, \"16\": {\"B\": 1.0}, \"17\": {\"B\": 1.0}, \"18\": {\"B\": 1.0}, \"19\": {\"B\": 1.0}, \"20\": {\"B\": 1.0}, \"21\": {\"B\": 1.0}, \"22\": {\"B\": 1.0}, \"23\": {\"B\": 1.0}, \"24\": {\"B\": 1.0}, \"25\": {\"B\": 1.0}, \"26\": {\"B\": 1.0}, \"27\": {\"B\": 1.0}, \"28\": {\"B\": 1.0}, \"29\": {\"B\": 1.0}, \"30\": {\"B\": 1.0}}" pbc="T T T"
Na       4.81844983       2.47074684       4.66801051        0
Na      -0.18458656       7.56895142       3.22079049        1
B        4.39077595       7.38539676       3.14947635        2
B       -0.08726979       2.99094270       3.14947635        3
B        7.13157245       4.59572223       0.05072945        4
B        2.65026965       0.19807191       0.05072945        5
B        6.38162451       5.36023924       1.58177097        6
B        1.90001827       0.96229114       1.58177097        7
B        5.68288891       3.87222472       0.84238279        8
B        3.40093366       1.63286673       0.84238279        9
B        5.78189706       3.99279615       2.58579865       10
B        3.27851820       1.53614786       2.58579865       11
B        0.95257715       5.17060648       1.42507229       12
B        2.19190712       6.38680188       1.42507229       13
B        6.93636447       2.81587364       0.22866253       14
B        4.43348024       0.35971076       0.22866253       15
B        1.25983449       3.58258879       0.61572095       16
B        3.77385382       6.04967892       0.61572095       17
B        6.10751518       2.39684632       1.78701994       18
B        4.86804970       1.18051794       1.78701994       19
B        0.10683733       4.75802937       2.96961398       20
B        2.62034575       7.22461813       2.96961398       21
B        0.38238999       5.51180661       4.52427210       22
B        1.86151057       6.96331645       4.52427210       23
B        1.39618432       3.69143583       2.38076854       24
B        3.66245711       5.91540410       2.38076854       25
B        0.66630629       2.22286536       1.61100645       26
B        5.14451867       6.61748295       1.61100645       27
B        4.15118677       3.15070264       0.45316144       28
B        4.44698140       4.75169142       3.34655537       29
B        2.54490906       2.88512506       3.34655537       30
