22
Lattice="7.6665703515925365 0.0 0.0 -1.0389680917588169 7.595844012367865 0.0 -3.3138011299168584 -3.797922006183931 5.776747481258229" Properties=species:S:1:pos:R:3:spacegroup_kinds:I:1 spacegroup="P 1" unit_cell=conventional occupancy="_JSON {\"0\": {\"Mg\": 1.0}, \"1\": {\"Mg\": 1.0}, \"2\": {\"B\": 1.0}, \"3\": {\"B\": 1.0}, \"4\": {\"B\": 1.0}, \"5\": {\"B\": 1.0}, \"6\": {\"H\": 1.0}, \"7\": {\"H\": 1.0}, \"8\": {\"H\": 1.0}, \"9\": {\"H\": 1.0}, \"10\": {\"H\": 1.0}, \"11\": {\"H\": 1.0}, \"12\": {\"H\": 1.0}, \"13\": {\"H\": 1.0}, \"14\": {\"H\": 1.0}, \"15\": {\"H\": 1.0}, \"16\": {\"H\": 1.0}, \"17\": {\"H\": 1.0}, \"18\": {\"H\": 1.0}, \"19\": {\"H\": 1.0}, \"20\": {\"H\": 1.0}, \"21\": {\"H\": 1.0}}" pbc="T T T"
Mg      -0.51948405       3.79792201       2.88837374        0
Mg       0.00000000       0.00000000       0.00000000        1
B       -1.02745679       5.58046473       1.33368464        2
B        1.31545430       3.53620437       4.44306284        3
B       -2.35442239       4.05963964       4.44306284        4
B       -0.01151131       2.01537929       1.33368464        5
H        5.91170336       4.60212738       1.42879009        6
H        0.44472051       2.68292116       4.34795739        7
H       -0.44472051      -2.68292116       4.34795739        8
H        0.71589890       2.99371663       1.42879009        9
H        1.18881517       4.51198159       3.70611585       10
H       -0.04351935       5.58723051       2.07063163       11
H       -0.99544874       2.00861351       2.07063163       12
H       -2.22778326       3.08386243       3.70611585       13
H       -0.60909378       5.58538628       0.18251030       14
H        2.30260229      -3.64446920       5.59423718       15
H        2.36613362       2.98941092       4.13106271       16
H       -0.67262512      -1.04849384       1.64568477       17
H        4.26146864       4.60643309       4.13106271       18
H        0.67262512       1.04849384       1.64568477       19
H        7.23669604       2.01045773       0.18251030       20
H       -2.30260229       3.64446920       5.59423718       21
