24
Lattice="9.007890183448708 0.0 0.0 1.1770261586896278 5.838043105578236 0.0 1.2816454675110587 1.1221110218902377 5.696584442943932" Properties=species:S:1:pos:R:3:spacegroup_kinds:I:1 spacegroup="P 1" unit_cell=conventional occupancy="_JSON {\"0\": {\"B\": 1.0}, \"1\": {\"B\": 1.0}, \"2\": {\"B\": 1.0}, \"3\": {\"B\": 1.0}, \"4\": {\"B\": 1.0}, \"5\": {\"B\": 1.0}, \"6\": {\"O\": 1.0}, \"7\": {\"O\": 1.0}, \"8\": {\"H\": 1.0}, \"9\": {\"H\": 1.0}, \"10\": {\"H\": 1.0}, \"11\": {\"H\": 1.0}, \"12\": {\"H\": 1.0}, \"13\": {\"H\": 1.0}, \"14\": {\"H\": 1.0}, \"15\": {\"H\": 1.0}, \"16\": {\"H\": 1.0}, \"17\": {\"H\": 1.0}, \"18\": {\"H\": 1.0}, \"19\": {\"H\": 1.0}, \"20\": {\"H\": 1.0}, \"21\": {\"H\": 1.0}, \"22\": {\"C\": 1.0}, \"23\": {\"C\": 1.0}}" pbc="T T T"
B        4.32258538       2.50872149       4.80584336        0
B        3.18230663       2.89174918       3.42277275        1
B        3.70432839       4.20012121       4.46749434        2
B        6.86737502       4.43144300       0.95872558        3
B        8.00730811       4.05369468       2.34339655        4
B        7.48703154       2.74135795       1.30239767        5
O        1.64751516       0.32110576       1.10688829        6
O        9.54480725       6.61361130       4.65641533        7
H        6.49318373       5.35803204       1.64458979        8
H        5.89097883       3.90371596       0.47438681        9
H        8.99260637       4.71931361       2.15838057       10
H        7.47814527       4.12041091       3.41670735       11
H        8.47203662       2.82734072       2.17631923       12
H        8.06723408       2.38927371       0.30836798       13
H        6.64036193       2.01747157       1.74484442       14
H        4.69874748       1.58435492       4.11826554       15
H        5.29755646       3.03694103       5.29283250       16
H        2.19718193       2.22526389       3.60585110       17
H        3.71134895       2.82977694       2.34911618       18
H        3.12684839       4.54996723       5.46375000       19
H        4.55056389       4.92494578       4.02584569       20
H        2.71697375       4.11693949       3.59546149       21
C        8.94704768       6.15628821       5.51098350       22
C        2.24367042       0.78077052       0.25247178       23
