48
Lattice="8.59585567151995 0.0 0.0 4.2979278357599755 7.444229378800821 0.0 4.2979278357599755 2.4814097929336074 7.01848676594424" Properties=species:S:1:pos:R:3:spacegroup_kinds:I:1 spacegroup="P 1" unit_cell=conventional occupancy="_JSON {\"0\": {\"Cl\": 1.0}, \"1\": {\"Cl\": 1.0}, \"2\": {\"O\": 1.0}, \"3\": {\"O\": 1.0}, \"4\": {\"O\": 1.0}, \"5\": {\"O\": 1.0}, \"6\": {\"O\": 1.0}, \"7\": {\"O\": 1.0}, \"8\": {\"O\": 1.0}, \"9\": {\"O\": 1.0}, \"10\": {\"O\": 1.0}, \"11\": {\"O\": 1.0}, \"12\": {\"O\": 1.0}, \"13\": {\"O\": 1.0}, \"14\": {\"O\": 1.0}, \"15\": {\"O\": 1.0}, \"16\": {\"O\": 1.0}, \"17\": {\"O\": 1.0}, \"18\": {\"O\": 1.0}, \"19\": {\"O\": 1.0}, \"20\": {\"O\": 1.0}, \"21\": {\"O\": 1.0}, \"22\": {\"O\": 1.0}, \"23\": {\"O\": 1.0}, \"24\": {\"O\": 1.0}, \"25\": {\"O\": 1.0}, \"26\": {\"O\": 1.0}, \"27\": {\"O\": 1.0}, \"28\": {\"Mg\": 1.0}, \"29\": {\"Mg\": 1.0}, \"30\": {\"Mg\": 1.0}, \"31\": {\"Mg\": 1.0}, \"32\": {\"Mg\": 1.0}, \"33\": {\"Mg\": 1.0}, \"34\": {\"B\": 1.0}, \"35\": {\"B\": 1.0}, \"36\": {\"B\": 1.0}, \"37\": {\"B\": 1.0}, \"38\": {\"B\": 1.0}, \"39\": {\"B\": 1.0}, \"40\": {\"B\": 1.0}, \"41\": {\"B\": 1.0}, \"42\": {\"B\": 1.0}, \"43\": {\"B\": 1.0}, \"44\": {\"B\": 1.0}, \"45\": {\"B\": 1.0}, \"46\": {\"B\": 1.0}, \"47\": {\"B\": 1.0}}" pbc="T T T"
Cl      12.89378351       7.44422938       5.26386507        0
Cl       4.29792784       2.48140979       1.75462169        1
O       10.49670706       2.68962481       6.28796531        2
O        6.19877922       4.34348236       3.94905754        3
O        6.69500429       6.82489215       0.43981415        4
O       10.99293212       5.17103460       2.77872193        5
O        6.86095567       4.78872685       1.69739231        6
O       11.15888351       5.67796889       0.43981415        7
O       10.33075567       3.19655910       3.94905754        8
O        6.03282783       2.30731706       5.20663569        9
O        7.57763694       8.51021807       5.20663569       10
O        7.57763694       2.78278298       2.77872193       11
O        9.61407440       7.74560256       6.28796531       12
O        9.61407440       3.54739848       1.69739231       13
O        5.01460910       6.26583775       2.10255838       14
O        7.87917440       3.78442796       5.61180176       15
O       12.17710224       4.07092363       5.20663569       16
O        9.31253694       6.55233342       1.69739231       17
O        9.97471339       4.93135122       5.61180176       18
O       11.51492579       7.41276101       2.10255838       19
O        7.21699795       6.93464118       2.77872193       20
O        5.67678556       4.45323139       6.28796531       21
O        9.25803213       1.20986000       2.10255838       22
O        7.93367922       6.17267958       5.61180176       23
O        7.93367922       2.38559771       0.43981415       24
O        9.25803213       7.34841730       3.94905754       25
O        0.00000000       0.00000000       0.00000000       26
O        8.59585567       4.96281959       3.50924338       27
Mg       4.29792784       0.00000000       0.00000000       28
Mg      12.89378351       4.96281959       3.50924338       29
Mg       6.44689175       3.72211469       0.00000000       30
Mg       2.14896392       3.72211469       0.00000000       31
Mg       2.14896392       1.24070490       3.50924338       32
Mg       6.44689175       1.24070490       3.50924338       33
B       15.80452194       9.12474499       6.45216906       34
B        7.20866626       4.16192541       2.94292568       35
B        9.98304508       9.12474499       6.45216906       36
B        9.98304508       4.16192541       2.94292568       37
B       12.89378351       7.44422938       1.69895311       38
B        8.59585567       4.96281959       5.20819650       39
B       12.89378351       4.08319815       6.45216906       40
B        8.59585567       6.56460794       2.94292568       41
B        8.59585567       7.44422938       5.26386507       42
B        8.59585567       2.48140979       1.75462169       43
B        6.44689175       3.72211469       5.26386507       44
B       10.74481959       3.72211469       5.26386507       45
B       10.74481959       6.20352448       1.75462169       46
B        6.44689175       6.20352448       1.75462169       47
