40
Lattice="10.504356976126937 0.0 0.0 0.0 2.987739365793 0.0 -10.111051822794478 0.0 10.229190655876927" Properties=species:S:1:pos:R:3:spacegroup_kinds:I:1 spacegroup="P 1" unit_cell=conventional occupancy="_JSON {\"0\": {\"B\": 1.0}, \"1\": {\"B\": 1.0}, \"2\": {\"B\": 1.0}, \"3\": {\"B\": 1.0}, \"4\": {\"B\": 1.0}, \"5\": {\"B\": 1.0}, \"6\": {\"B\": 1.0}, \"7\": {\"B\": 1.0}, \"8\": {\"B\": 1.0}, \"9\": {\"B\": 1.0}, \"10\": {\"B\": 1.0}, \"11\": {\"B\": 1.0}, \"12\": {\"B\": 1.0}, \"13\": {\"B\": 1.0}, \"14\": {\"B\": 1.0}, \"15\": {\"B\": 1.0}, \"16\": {\"B\": 1.0}, \"17\": {\"B\": 1.0}, \"18\": {\"B\": 1.0}, \"19\": {\"B\": 1.0}, \"20\": {\"B\": 1.0}, \"21\": {\"B\": 1.0}, \"22\": {\"B\": 1.0}, \"23\": {\"B\": 1.0}, \"24\": {\"B\": 1.0}, \"25\": {\"B\": 1.0}, \"26\": {\"B\": 1.0}, \"27\": {\"B\": 1.0}, \"28\": {\"B\": 1.0}, \"29\": {\"B\": 1.0}, \"30\": {\"B\": 1.0}, \"31\": {\"B\": 1.0}, \"32\": {\"B\": 1.0}, \"33\": {\"B\": 1.0}, \"34\": {\"B\": 1.0}, \"35\": {\"B\": 1.0}, \"36\": {\"B\": 1.0}, \"37\": {\"B\": 1.0}, \"38\": {\"B\": 1.0}, \"39\": {\"B\": 1.0}}" pbc="T T T"
B        1.27518849       0.28485734       3.37939550        0
B       -0.88188334       2.70288203       6.84979516        1
B       -3.78033742       2.70288203       8.49399082        2
B        4.17364259       0.28485732       1.73519982        3
B        2.26880219       1.70861590       3.37672994        4
B       -1.87549705       1.27912339       6.85246071        5
B       -2.78672372       1.27912343       8.49132527        6
B        3.18002887       1.70861590       1.73786538        7
B        1.49355943       1.31939553       1.81995621        8
B       -1.10025430       1.66834381       8.40923445        9
B       -3.56196645       1.66834388       6.93455153       10
B        3.95527159       1.31939552       3.29463914       11
B       -1.29696917       1.66902630       3.29481275       12
B        1.69027433       1.31871305       6.93437790       13
B       -6.35249508       1.31871306       8.40940808       14
B        6.74580024       1.66902627       1.81978257       15
B        7.96473780       2.71550960       0.84412852       16
B       -7.57143267       0.27222977       9.38506216       17
B        2.90921187       0.27222977       5.95872383       18
B       -2.51590674       2.71550960       4.27046683       19
B        8.43231067       1.27960830       1.73793340       20
B       -8.03900547       1.70813109       8.49125720       21
B        3.37678478       1.70813105       6.85252872       22
B       -2.98347958       1.27960834       3.37666190       23
B        0.62053255       2.79290638       1.75527501       24
B       -0.22722732       0.19483301       8.47391565       25
B       -4.43499339       0.19483303       6.86987034       26
B        4.82829855       2.79290636       3.35932032       27
B       -0.42381836       0.19556286       3.35955187       28
B        0.81712360       2.79217651       6.86963879       29
B       -5.47934437       2.79217649       8.47414722       30
B        5.87264946       0.19556285       1.75504347       31
B       -1.07841812       2.70344101       1.73549055       32
B        1.47172327       0.28429838       8.49370010       33
B       -6.13394403       0.28429841       6.85008588       34
B        6.52724918       2.70344095       3.37910478       35
B        2.73672010       0.27253229       4.27036911       36
B       -2.34341493       2.71520709       5.95882154       37
B       -2.31880572       2.71520709       9.38496439       38
B        2.71211092       0.27253230       0.84422621       39
