32
Lattice="9.391783997023136 0.0 0.0 0.48919949112357475 9.37903462540918 0.0 0.0 0.0 10.717753148453" Properties=species:S:1:pos:R:3:spacegroup_kinds:I:1 spacegroup="P 1" unit_cell=conventional occupancy="_JSON {\"0\": {\"B\": 1.0}, \"1\": {\"B\": 1.0}, \"2\": {\"B\": 1.0}, \"3\": {\"B\": 1.0}, \"4\": {\"P\": 1.0}, \"5\": {\"P\": 1.0}, \"6\": {\"P\": 1.0}, \"7\": {\"P\": 1.0}, \"8\": {\"Br\": 1.0}, \"9\": {\"Br\": 1.0}, \"10\": {\"Br\": 1.0}, \"11\": {\"Br\": 1.0}, \"12\": {\"Br\": 1.0}, \"13\": {\"Br\": 1.0}, \"14\": {\"Br\": 1.0}, \"15\": {\"Br\": 1.0}, \"16\": {\"N\": 1.0}, \"17\": {\"N\": 1.0}, \"18\": {\"N\": 1.0}, \"19\": {\"N\": 1.0}, \"20\": {\"Cl\": 1.0}, \"21\": {\"Cl\": 1.0}, \"22\": {\"Cl\": 1.0}, \"23\": {\"Cl\": 1.0}, \"24\": {\"Cl\": 1.0}, \"25\": {\"Cl\": 1.0}, \"26\": {\"Cl\": 1.0}, \"27\": {\"Cl\": 1.0}, \"28\": {\"Cl\": 1.0}, \"29\": {\"Cl\": 1.0}, \"30\": {\"Cl\": 1.0}, \"31\": {\"Cl\": 1.0}}" pbc="T T T"
B        4.14331621       3.93283788       5.35887657        0
B        9.08380795       8.62235520       0.00000000        1
B        5.73766728       5.44619674       5.35887657        2
B        0.79717553       0.75667943       0.00000000        3
P        4.85478112       4.77981501       2.69993778        4
P        9.30607337       0.09029770       2.65893879        5
P        5.02620237       4.59921961       8.01781537        6
P        0.57491012       9.28873692       8.05881436        7
Br       5.44622873       7.45868931       5.24821137        8
Br       0.50573699       2.76917200       0.11066520        9
Br       7.73224743       5.05032706       5.46954178       10
Br       2.79175568       0.36080974      10.60708795       11
Br       2.14873606       4.32870757       5.24821137       12
Br       7.08922781       9.01822488       0.11066520       13
Br       4.43475476       1.92034531       5.46954178       14
Br       9.37524650       6.60986263      10.60708795       15
N        4.99343636       4.63373920       4.26491081       16
N        0.54214411       9.32325651       1.09396577       17
N        4.88754713       4.74529543       6.45284234       18
N        9.33883938       0.05577812       9.62378738       19
Cl       4.25455452       3.07413557       1.87005553       20
Cl       9.19504627       7.76365289       3.48882104       21
Cl       3.29157377       4.08865330       8.84769761       22
Cl       8.23206552       8.77817061       7.22893211       23
Cl       6.58940972       5.29038132       1.87005553       24
Cl       1.64891797       0.60086401       3.48882104       25
Cl       5.62642896       6.30489905       8.84769761       26
Cl       0.68593722       1.61538174       7.22893211       27
Cl       8.00342674       1.46265962       3.33146662       28
Cl       3.55213448       6.15217693       2.02740996       29
Cl       1.87755675       7.91637501       7.38628653       30
Cl       6.32884901       3.22685770       8.69034319       31
