24
Lattice="11.7071844097 0.0 0.0 0.0 3.9175706188 0.0 0.0 0.0 9.0332413346" Properties=species:S:1:pos:R:3:spacegroup_kinds:I:1 spacegroup="P 1" unit_cell=conventional occupancy="_JSON {\"0\": {\"Ca\": 1.0}, \"1\": {\"Ca\": 1.0}, \"2\": {\"Ca\": 1.0}, \"3\": {\"Ca\": 1.0}, \"4\": {\"Ca\": 1.0}, \"5\": {\"Ca\": 1.0}, \"6\": {\"Ca\": 1.0}, \"7\": {\"Ca\": 1.0}, \"8\": {\"B\": 1.0}, \"9\": {\"B\": 1.0}, \"10\": {\"B\": 1.0}, \"11\": {\"B\": 1.0}, \"12\": {\"N\": 1.0}, \"13\": {\"N\": 1.0}, \"14\": {\"N\": 1.0}, \"15\": {\"N\": 1.0}, \"16\": {\"N\": 1.0}, \"17\": {\"N\": 1.0}, \"18\": {\"N\": 1.0}, \"19\": {\"N\": 1.0}, \"20\": {\"Cl\": 1.0}, \"21\": {\"Cl\": 1.0}, \"22\": {\"Cl\": 1.0}, \"23\": {\"Cl\": 1.0}}" pbc="T T T"
Ca       1.99156649       2.93817796       0.47457698        0
Ca       7.84515870       2.93817796       4.04204369        1
Ca       9.71561792       0.97939265       8.55866436        2
Ca       3.86202571       0.97939265       4.99119764        3
Ca       1.05792082       2.93817796       5.49508802        4
Ca       6.91151303       2.93817796       8.05477399        5
Ca      10.64926359       0.97939265       3.53815332        6
Ca       4.79567138       0.97939265       0.97846735        7
B        3.91173241       2.93817796       7.39950712        8
B        9.76532462       2.93817796       6.15035489        9
B        7.79545200       0.97939265       1.63373422       10
B        1.94185979       0.97939265       2.88288645       11
N        4.41586840       2.93817796       8.65466284       12
N       10.26946061       2.93817796       4.89519916       13
N        7.29131601       0.97939265       0.37857849       14
N        1.43772380       0.97939265       4.13804218       15
N        3.35922414       2.93817796       6.18052691       16
N        9.21281634       2.93817796       7.36933509       17
N        8.34796027       0.97939265       2.85271442       18
N        2.49436807       0.97939265       1.66390624       19
Cl       5.13521904       2.93817796       3.13767546       20
Cl      10.98881125       2.93817796       1.37894521       21
Cl       6.57196537       0.97939265       5.89556587       22
Cl       0.71837316       0.97939265       7.65429613       23
