18
Lattice="8.568630725753012 0.0 0.0 -2.856210241917669 8.078582522217818 0.0 -2.856210241917669 -4.039291261108906 6.996257690809597" Properties=species:S:1:pos:R:3:spacegroup_kinds:I:1 spacegroup="P 1" unit_cell=conventional occupancy="_JSON {\"0\": {\"Be\": 1.0}, \"1\": {\"Be\": 1.0}, \"2\": {\"Be\": 1.0}, \"3\": {\"Be\": 1.0}, \"4\": {\"Be\": 1.0}, \"5\": {\"Be\": 1.0}, \"6\": {\"Cl\": 1.0}, \"7\": {\"Cl\": 1.0}, \"8\": {\"Cl\": 1.0}, \"9\": {\"Cl\": 1.0}, \"10\": {\"Cl\": 1.0}, \"11\": {\"Cl\": 1.0}, \"12\": {\"Cl\": 1.0}, \"13\": {\"Cl\": 1.0}, \"14\": {\"Cl\": 1.0}, \"15\": {\"Cl\": 1.0}, \"16\": {\"Cl\": 1.0}, \"17\": {\"Cl\": 1.0}}" pbc="T T T"
Be       4.28431536       0.00000000       3.49812885        0
Be      -1.42810512       1.00982282       5.24719327        1
Be      -1.42810512       4.03929126       3.49812885        2
Be       4.28431536       3.02946845       1.74906442        3
Be       1.42810512      -1.00982282       5.24719327        4
Be       1.42810512       5.04911408       1.74906442        5
Cl       4.77171911       1.04676131       1.81304377        6
Cl       5.10874347       0.80844909       5.18321393        7
Cl      -0.70815484       2.13880174       3.70451328        8
Cl      -3.45988725       4.08457039       3.29174442        9
Cl       1.91550887       5.98505991       0.00000000       10
Cl      -0.60367701       4.84774035       1.81304377       11
Cl       2.25253323       3.18556304       1.89146951       12
Cl       5.00426564      -1.90048952       3.29174442       13
Cl       2.14805540      -0.23831221       6.99625769       14
Cl       2.25253323       0.04527912       3.70451328       15
Cl      -0.60367701      -0.85372822       5.10478818       16
Cl      -0.94070138       5.08605257       5.18321393       17
