40
Lattice="12.258686555 0.0 0.0 0.0 12.258686555 0.0 0.0 0.0 12.258686555" Properties=species:S:1:pos:R:3:spacegroup_kinds:I:1 spacegroup="P 1" unit_cell=conventional occupancy="_JSON {\"0\": {\"Ge\": 1.0}, \"1\": {\"Ge\": 1.0}, \"2\": {\"Ge\": 1.0}, \"3\": {\"Ge\": 1.0}, \"4\": {\"Ge\": 1.0}, \"5\": {\"Ge\": 1.0}, \"6\": {\"Ge\": 1.0}, \"7\": {\"Ge\": 1.0}, \"8\": {\"Br\": 1.0}, \"9\": {\"Br\": 1.0}, \"10\": {\"Br\": 1.0}, \"11\": {\"Br\": 1.0}, \"12\": {\"Br\": 1.0}, \"13\": {\"Br\": 1.0}, \"14\": {\"Br\": 1.0}, \"15\": {\"Br\": 1.0}, \"16\": {\"Br\": 1.0}, \"17\": {\"Br\": 1.0}, \"18\": {\"Br\": 1.0}, \"19\": {\"Br\": 1.0}, \"20\": {\"Br\": 1.0}, \"21\": {\"Br\": 1.0}, \"22\": {\"Br\": 1.0}, \"23\": {\"Br\": 1.0}, \"24\": {\"Br\": 1.0}, \"25\": {\"Br\": 1.0}, \"26\": {\"Br\": 1.0}, \"27\": {\"Br\": 1.0}, \"28\": {\"Br\": 1.0}, \"29\": {\"Br\": 1.0}, \"30\": {\"Br\": 1.0}, \"31\": {\"Br\": 1.0}, \"32\": {\"Br\": 1.0}, \"33\": {\"Br\": 1.0}, \"34\": {\"Br\": 1.0}, \"35\": {\"Br\": 1.0}, \"36\": {\"Br\": 1.0}, \"37\": {\"Br\": 1.0}, \"38\": {\"Br\": 1.0}, \"39\": {\"Br\": 1.0}}" pbc="T T T"
Ge       4.46742681      10.59677008       7.79125975        0
Ge       4.46742681       7.79125975       1.66191647        1
Ge      10.59677008      10.59677008      10.59677008        2
Ge      10.59677008       7.79125975       4.46742681        3
Ge       7.79125975       4.46742681      10.59677008        4
Ge       7.79125975       1.66191647       4.46742681        5
Ge       1.66191647       4.46742681       7.79125975        6
Ge       1.66191647       1.66191647       1.66191647        7
Br       6.61500316       5.95060598       9.27279365        8
Br       6.61500316       0.17873730       3.14345037        9
Br       0.48565988       5.95060598       9.11523619       10
Br       0.48565988       0.17873730       2.98589291       11
Br      12.07994926       9.11523619       5.64368340       12
Br      12.07994926       9.27279365      11.77302667       13
Br       5.95060598       9.11523619       0.48565988       14
Br       5.95060598       9.27279365       6.61500316       15
Br       2.98589291       0.48565988       0.17873730       16
Br       2.98589291       5.64368340       6.30808057       17
Br       9.11523619       0.48565988       5.95060598       18
Br       9.11523619       5.64368340      12.07994926       19
Br       5.64368340      12.07994926       9.11523619       20
Br       5.64368340       6.30808057       2.98589291       21
Br      11.77302667      12.07994926       9.27279365       22
Br      11.77302667       6.30808057       3.14345037       23
Br       0.17873730       2.98589291       0.48565988       24
Br       0.17873730       3.14345037       6.61500316       25
Br       6.30808057       2.98589291       5.64368340       26
Br       6.30808057       3.14345037      11.77302667       27
Br       9.27279365       6.61500316       5.95060598       28
Br       9.27279365      11.77302667      12.07994926       29
Br       3.14345037       6.61500316       0.17873730       30
Br       3.14345037      11.77302667       6.30808057       31
Br       3.13696820       9.26631148       9.12171835       32
Br       3.13696820       9.12171835       2.99237508       33
Br       9.26631148       9.26631148       9.26631148       34
Br       9.26631148       9.12171835       3.13696820       35
Br       9.12171835       3.13696820       9.26631148       36
Br       9.12171835       2.99237508       3.13696820       37
Br       2.99237508       3.13696820       9.12171835       38
Br       2.99237508       2.99237508       2.99237508       39
