16
Lattice="5.851057814803175 0.0 0.0 0.0 7.0944196539907 0.0 -5.848592536618394 0.0 6.551619860566163" Properties=species:S:1:pos:R:3:spacegroup_kinds:I:1 spacegroup="P 1" unit_cell=conventional occupancy="_JSON {\"0\": {\"Na\": 1.0}, \"1\": {\"Na\": 1.0}, \"2\": {\"Na\": 1.0}, \"3\": {\"Na\": 1.0}, \"4\": {\"Br\": 1.0}, \"5\": {\"Br\": 1.0}, \"6\": {\"Br\": 1.0}, \"7\": {\"Br\": 1.0}, \"8\": {\"O\": 1.0}, \"9\": {\"O\": 1.0}, \"10\": {\"O\": 1.0}, \"11\": {\"O\": 1.0}, \"12\": {\"O\": 1.0}, \"13\": {\"O\": 1.0}, \"14\": {\"O\": 1.0}, \"15\": {\"O\": 1.0}}" pbc="T T T"
Na       4.38883326       0.69272999       0.95889665        0
Na       1.46453699       2.85447984       4.23470658        1
Na      -1.46207172       4.23993981       2.31691328        2
Na      -4.38636798       6.40168967       5.59272321        3
Br       1.46312051       5.77797367       2.23086909        4
Br      -1.46117575       4.86365581       5.50667902        5
Br       1.46364103       2.23076384       1.04494084        6
Br      -1.46065524       1.31644599       4.32075077        7
O        2.86999202       5.88138094       1.16314455        8
O       -0.05430425       4.76024854       4.43895448        9
O        0.05676953       2.33417111       2.11266538       10
O       -2.86752674       1.21303871       5.38847531       11
O        2.87010225       2.33479481       2.11339971       12
O       -0.05419401       1.21241502       5.38920964       13
O        0.05665929       5.88200463       1.16241022       14
O       -2.86763698       4.75962485       4.43822015       15
