38
Lattice="8.102729003847628 0.0 0.0 0.0 9.0931390763545 0.0 -3.5357005167348374 0.0 6.875221419652882" Properties=species:S:1:pos:R:3:spacegroup_kinds:I:1 spacegroup="P 1" unit_cell=conventional occupancy="_JSON {\"0\": {\"Mg\": 1.0}, \"1\": {\"Mg\": 1.0}, \"2\": {\"H\": 1.0}, \"3\": {\"H\": 1.0}, \"4\": {\"H\": 1.0}, \"5\": {\"H\": 1.0}, \"6\": {\"H\": 1.0}, \"7\": {\"H\": 1.0}, \"8\": {\"H\": 1.0}, \"9\": {\"H\": 1.0}, \"10\": {\"H\": 1.0}, \"11\": {\"H\": 1.0}, \"12\": {\"H\": 1.0}, \"13\": {\"H\": 1.0}, \"14\": {\"H\": 1.0}, \"15\": {\"H\": 1.0}, \"16\": {\"H\": 1.0}, \"17\": {\"H\": 1.0}, \"18\": {\"C\": 1.0}, \"19\": {\"C\": 1.0}, \"20\": {\"C\": 1.0}, \"21\": {\"C\": 1.0}, \"22\": {\"S\": 1.0}, \"23\": {\"S\": 1.0}, \"24\": {\"S\": 1.0}, \"25\": {\"S\": 1.0}, \"26\": {\"N\": 1.0}, \"27\": {\"N\": 1.0}, \"28\": {\"N\": 1.0}, \"29\": {\"N\": 1.0}, \"30\": {\"O\": 1.0}, \"31\": {\"O\": 1.0}, \"32\": {\"O\": 1.0}, \"33\": {\"O\": 1.0}, \"34\": {\"O\": 1.0}, \"35\": {\"O\": 1.0}, \"36\": {\"O\": 1.0}, \"37\": {\"O\": 1.0}}" pbc="T T T"
Mg       0.00000000       0.00000000       0.00000000        0
Mg      -1.76785026       4.54656954       3.43761071        1
H        4.60253014       1.80123109       4.69800948        2
H        6.37038040       2.74533844       1.26039877        3
H       -1.80335192       6.34780063       5.61482265        4
H       -0.03550166       7.29190798       2.17721194        5
H        3.84539673       4.05969231       4.51085439        6
H        5.61324699       0.48687722       1.07324368        7
H       -1.04621850       8.60626185       5.80197773        8
H        0.72163176       5.03344676       2.36436703        9
H        3.91421781       3.49171723       3.07370737       10
H        2.14636755       1.05485231       6.51131808       11
H        2.42066093       8.03828676       0.36390334       12
H        0.65281068       5.60142185       3.80151405       13
H       -1.39920246       4.92216820       6.13257605       14
H        0.36864780       8.71754041       2.69496534       15
H        4.19838068       0.37559867       4.18025608       16
H        5.96623094       4.17097087       0.74264537       17
C        2.92287915       6.43809614       5.88476602       18
C        4.69072941       7.20161248       2.44715531       19
C       -0.12370092       1.89152660       4.42806611       20
C        1.64414934       2.65504294       0.99045540       21
S        2.08802797       5.06701878       5.53708167       22
S        3.85587823       8.57268984       2.09947096       23
S        0.71115026       0.52044924       4.77575046       24
S        2.47900051       4.02612030       1.33813975       25
N        3.51888762       7.41780117       6.14902432       26
N        5.28673788       6.22190744       2.71141361       27
N       -0.71970940       2.87123163       4.16380781       28
N        1.04814086       1.67533791       0.72619710       29
O        4.50574692       0.86265004       4.97990165       30
O        6.27359718       3.68391950       1.54229094       31
O       -1.70656869       5.40921958       5.33293048       32
O        0.06128157       8.23048904       1.89531977       33
O        4.44614813       3.54735564       3.90739537       34
O        6.21399839       0.99921390       0.46978466       35
O       -1.64696990       8.09392518       6.40543675       36
O        0.12088035       5.54578344       2.96782604       37
