40
Lattice="12.959816456888214 0.0 0.0 9.424058545122856 6.838724410082011 0.0 3.535757911765358 -2.9061307891519816 6.190521415308606" Properties=species:S:1:pos:R:3:spacegroup_kinds:I:1 spacegroup="P 1" unit_cell=conventional occupancy="_JSON {\"0\": {\"C\": 1.0}, \"1\": {\"C\": 1.0}, \"2\": {\"C\": 1.0}, \"3\": {\"C\": 1.0}, \"4\": {\"C\": 1.0}, \"5\": {\"C\": 1.0}, \"6\": {\"C\": 1.0}, \"7\": {\"C\": 1.0}, \"8\": {\"C\": 1.0}, \"9\": {\"C\": 1.0}, \"10\": {\"C\": 1.0}, \"11\": {\"C\": 1.0}, \"12\": {\"C\": 1.0}, \"13\": {\"C\": 1.0}, \"14\": {\"C\": 1.0}, \"15\": {\"C\": 1.0}, \"16\": {\"Na\": 1.0}, \"17\": {\"Na\": 1.0}, \"18\": {\"Na\": 1.0}, \"19\": {\"Na\": 1.0}, \"20\": {\"Na\": 1.0}, \"21\": {\"Na\": 1.0}, \"22\": {\"Na\": 1.0}, \"23\": {\"Na\": 1.0}, \"24\": {\"O\": 1.0}, \"25\": {\"O\": 1.0}, \"26\": {\"O\": 1.0}, \"27\": {\"O\": 1.0}, \"28\": {\"O\": 1.0}, \"29\": {\"O\": 1.0}, \"30\": {\"O\": 1.0}, \"31\": {\"O\": 1.0}, \"32\": {\"O\": 1.0}, \"33\": {\"O\": 1.0}, \"34\": {\"O\": 1.0}, \"35\": {\"O\": 1.0}, \"36\": {\"O\": 1.0}, \"37\": {\"O\": 1.0}, \"38\": {\"O\": 1.0}, \"39\": {\"O\": 1.0}}" pbc="T T T"
C       11.73654963       4.12679175       4.41694608        0
C       16.34138237       5.72757860       1.22784377        1
C       12.52240086       2.09429421       0.31978659        2
C        7.70317506       0.78895028       3.32120569        3
C       14.18308328       2.24460028       5.61262794        4
C        9.57825054      -1.32248338       5.70646955        5
C       13.39723205      -0.60049900       2.03168222        6
C       18.21645786       2.67114174       2.12552383        7
C       12.40509722       4.23195090       3.34961678        8
C       17.23404122       5.52390274       0.35670515        9
C       11.62974201       2.29797007       1.19092521       10
C        7.03462746       0.68379113       4.38853499       11
C       13.51453569       1.23374933       5.25425576       12
C       18.88500545       3.68199270       2.48389601       13
C        8.68559170      -2.02449933       5.15190669       14
C       14.28989090       0.10151694       2.58624508       15
Na      15.23318502       2.09210919       0.81531653       16
Na      10.68644789      -0.15100894       2.24028083       17
Na      17.22315438       0.75386900       3.83763332       18
Na       8.69647853       3.15352806       2.31322475       19
Na      10.74324615       1.76221396       5.42492702       20
Na      15.17638676       4.16187303       3.90051845       21
Na      12.28903470      -1.77197344       5.49787094       22
Na      13.63059821       5.72976362       0.73231383       23
O       13.23235365       4.13057147       2.41672383       24
O       12.68727926       0.43236129       4.76605061       25
O       17.36440045       3.89982834       4.73549150       26
O       21.51504892       2.62940122       5.54254364       27
O       10.88449222       2.28634081       2.19560812       28
O       15.03514069       1.01591368       3.00266027       29
O       19.71226188       4.48338074       2.97210116       30
O       19.16718749       0.78517056       5.32142794       31
O        8.49841237       0.71332717       2.35810177       32
O       17.42122054       1.83146106       1.64779549       33
O       22.05679092       5.35618694       1.58086212       34
O       16.82265845      -0.84510190       5.52029585       35
O       15.57688269       5.76084392       2.21785591       36
O       10.34275022      -0.44044491       6.15728965       37
O       14.97832060       3.08428096       6.09035628       38
O       23.90112877       4.20241486       5.38005000       39
