64
Lattice="13.9793556649 0.0 0.0 0.0 7.8385898939 0.0 0.0 0.0 5.8883428945" Properties=species:S:1:pos:R:3:spacegroup_kinds:I:1 spacegroup="P 1" unit_cell=conventional occupancy="_JSON {\"0\": {\"H\": 1.0}, \"1\": {\"H\": 1.0}, \"2\": {\"H\": 1.0}, \"3\": {\"H\": 1.0}, \"4\": {\"H\": 1.0}, \"5\": {\"H\": 1.0}, \"6\": {\"H\": 1.0}, \"7\": {\"H\": 1.0}, \"8\": {\"H\": 1.0}, \"9\": {\"H\": 1.0}, \"10\": {\"H\": 1.0}, \"11\": {\"H\": 1.0}, \"12\": {\"H\": 1.0}, \"13\": {\"H\": 1.0}, \"14\": {\"H\": 1.0}, \"15\": {\"H\": 1.0}, \"16\": {\"H\": 1.0}, \"17\": {\"H\": 1.0}, \"18\": {\"H\": 1.0}, \"19\": {\"H\": 1.0}, \"20\": {\"H\": 1.0}, \"21\": {\"H\": 1.0}, \"22\": {\"H\": 1.0}, \"23\": {\"H\": 1.0}, \"24\": {\"H\": 1.0}, \"25\": {\"H\": 1.0}, \"26\": {\"H\": 1.0}, \"27\": {\"H\": 1.0}, \"28\": {\"H\": 1.0}, \"29\": {\"H\": 1.0}, \"30\": {\"H\": 1.0}, \"31\": {\"H\": 1.0}, \"32\": {\"H\": 1.0}, \"33\": {\"H\": 1.0}, \"34\": {\"H\": 1.0}, \"35\": {\"H\": 1.0}, \"36\": {\"H\": 1.0}, \"37\": {\"H\": 1.0}, \"38\": {\"H\": 1.0}, \"39\": {\"H\": 1.0}, \"40\": {\"C\": 1.0}, \"41\": {\"C\": 1.0}, \"42\": {\"C\": 1.0}, \"43\": {\"C\": 1.0}, \"44\": {\"C\": 1.0}, \"45\": {\"C\": 1.0}, \"46\": {\"C\": 1.0}, \"47\": {\"C\": 1.0}, \"48\": {\"C\": 1.0}, \"49\": {\"C\": 1.0}, \"50\": {\"C\": 1.0}, \"51\": {\"C\": 1.0}, \"52\": {\"N\": 1.0}, \"53\": {\"N\": 1.0}, \"54\": {\"N\": 1.0}, \"55\": {\"N\": 1.0}, \"56\": {\"Cl\": 1.0}, \"57\": {\"Cl\": 1.0}, \"58\": {\"Cl\": 1.0}, \"59\": {\"Cl\": 1.0}, \"60\": {\"O\": 1.0}, \"61\": {\"O\": 1.0}, \"62\": {\"O\": 1.0}, \"63\": {\"O\": 1.0}}" pbc="T T T"
H        2.93520673       5.87894242       3.04823254        0
H        9.92488456       5.87894242       5.78428180        1
H       11.04414893       1.95964747       2.84011036        2
H        4.05447110       1.95964747       0.10406109        3
H        4.94912976       3.77740657       2.78784333        4
H       11.93880759       0.14188838       0.15632811        5
H        9.03022590       7.69670151       3.10049956        6
H        2.04054807       4.06118333       5.73201478        7
H        9.03022590       4.06118333       3.10049956        8
H        2.04054807       7.69670151       5.73201478        9
H        4.94912976       0.14188838       2.78784333       10
H       11.93880759       3.77740657       0.15632811       11
H        4.10255524       4.65106486       1.45400160       12
H       11.09223307       7.10681998       1.49016985       13
H        9.87680043       0.73176991       4.43434130       14
H        2.88712259       3.18752503       4.39817304       15
H        9.87680043       3.18752503       4.43434130       16
H        2.88712259       0.73176991       4.39817304       17
H        4.10255524       7.10681998       1.45400160       18
H       11.09223307       4.65106486       1.49016985       19
H        5.90760840       4.68024519       1.54790174       20
H       12.89728623       7.07763965       1.39626971       21
H        8.07174727       0.76095024       4.34044115       22
H        1.08206943       3.15834470       4.49207319       23
H        8.07174727       3.15834470       4.34044115       24
H        1.08206943       0.76095024       4.49207319       25
H        5.90760840       7.07763965       1.54790174       26
H       12.89728623       4.68024519       1.39626971       27
H        6.95975496       5.87894242       3.41902429       28
H       13.94943280       5.87894242       5.41349006       29
H        7.01960070       1.95964747       2.46931861       30
H        0.02992287       1.95964747       0.47485284       31
H        5.91382349       4.97294602       4.57851151       32
H       12.90350132       6.78493882       4.25400284       33
H        8.06553218       1.05365107       1.30983139       34
H        1.07585434       2.86564388       1.63434006       35
H        8.06553218       2.86564388       1.30983139       36
H        1.07585434       1.05365107       1.63434006       37
H        5.91382349       6.78493882       4.57851151       38
H       12.90350132       4.97294602       4.25400284       39
C        4.97108581       4.64481998       2.11865589       40
C       11.96076365       7.11306486       0.82551555       41
C        9.00826985       0.72552504       3.76968700       42
C        2.01859202       3.19376991       5.06282734       43
C        9.00826985       3.19376991       3.76968700       44
C        2.01859202       0.72552504       5.06282734       45
C        4.97108581       7.11306486       2.11865589       46
C       11.96076365       4.64481998       0.82551555       47
C        6.01356686       5.87894242       3.97300735       48
C       13.00324470       5.87894242       4.85950699       49
C        7.96578880       1.95964747       1.91533555       50
C        0.97611097       1.95964747       1.02883590       51
N        4.91136702       5.87894242       2.96519911       52
N       11.90104485       5.87894242       5.86731523       53
N        9.06798864       1.95964747       2.92314378       54
N        2.07831081       1.95964747       0.02102767       55
Cl       1.41740441       5.87894242       1.86240966       56
Cl       8.40708224       5.87894242       1.08176179       57
Cl      12.56195126       1.95964747       4.02593323       58
Cl       5.57227343       1.95964747       4.80658111       59
O        3.70672140       5.87894242       3.73121649       60
O       10.69639923       5.87894242       5.10129786       61
O       10.27263426       1.95964747       2.15712641       62
O        3.28295643       1.95964747       0.78704504       63
