44
Lattice="6.8461526246759 0.0 0.0 0.0 8.7204637149834 0.0 0.0 0.0 11.749117047245" Properties=species:S:1:pos:R:3:spacegroup_kinds:I:1 spacegroup="P 1" unit_cell=conventional occupancy="_JSON {\"0\": {\"Ca\": 1.0}, \"1\": {\"Ca\": 1.0}, \"2\": {\"Ca\": 1.0}, \"3\": {\"Ca\": 1.0}, \"4\": {\"C\": 1.0}, \"5\": {\"C\": 1.0}, \"6\": {\"C\": 1.0}, \"7\": {\"C\": 1.0}, \"8\": {\"C\": 1.0}, \"9\": {\"C\": 1.0}, \"10\": {\"C\": 1.0}, \"11\": {\"C\": 1.0}, \"12\": {\"C\": 1.0}, \"13\": {\"C\": 1.0}, \"14\": {\"C\": 1.0}, \"15\": {\"C\": 1.0}, \"16\": {\"C\": 1.0}, \"17\": {\"C\": 1.0}, \"18\": {\"C\": 1.0}, \"19\": {\"C\": 1.0}, \"20\": {\"O\": 1.0}, \"21\": {\"O\": 1.0}, \"22\": {\"O\": 1.0}, \"23\": {\"O\": 1.0}, \"24\": {\"O\": 1.0}, \"25\": {\"O\": 1.0}, \"26\": {\"O\": 1.0}, \"27\": {\"O\": 1.0}, \"28\": {\"O\": 1.0}, \"29\": {\"O\": 1.0}, \"30\": {\"O\": 1.0}, \"31\": {\"O\": 1.0}, \"32\": {\"O\": 1.0}, \"33\": {\"O\": 1.0}, \"34\": {\"O\": 1.0}, \"35\": {\"O\": 1.0}, \"36\": {\"O\": 1.0}, \"37\": {\"O\": 1.0}, \"38\": {\"O\": 1.0}, \"39\": {\"O\": 1.0}, \"40\": {\"O\": 1.0}, \"41\": {\"O\": 1.0}, \"42\": {\"O\": 1.0}, \"43\": {\"O\": 1.0}}" pbc="T T T"
Ca       1.68198460       7.84292379       6.40706093        0
Ca       5.10506091       5.23777178       5.34205612        1
Ca       5.16416802       3.48269193      11.21661464        2
Ca       1.74109171       0.87753992       0.53250241        3
C        5.31883850       3.17321005       7.88733026        4
C        1.89576219       1.18702181       3.86178679        5
C        1.52731413       7.53344190       9.73634531        6
C        4.95039044       5.54725367       2.01277174        7
C        4.86000261       2.18457061       6.78989536        8
C        1.43692630       2.17566124       4.95922169        9
C        1.98615002       6.54480247      10.83378021       10
C        5.40922633       6.53589310       0.91533684       11
C        4.31849618       0.80015313       7.10099016       12
C        0.89541987       3.56007873       4.64812688       13
C        2.52765644       5.16038498      10.52268541       14
C        5.95073276       7.92031059       1.22643164       15
C        4.99525481       8.27012666       6.50510306       16
C        1.57217850       4.81056891       5.24401399       17
C        1.85089781       3.90989481      11.11857252       18
C        5.27397413       0.45033705       0.63054453       19
O        5.57202116       4.33007945       7.46736052       20
O        2.14894485       0.03015241       4.28175652       21
O        1.27413146       8.69031130      10.15631505       22
O        4.69720777       4.39038427       1.59280200       23
O        5.37289180       2.71139790       9.05548360       24
O        1.94981548       1.64883395       2.69363345       25
O        1.47326083       7.07162976       8.56819197       26
O        4.89633714       6.00906581       3.18092508       27
O        4.73944515       2.54039415       5.62531071       28
O        1.31636884       1.81983771       6.12380634       29
O        2.10670747       6.90062601       0.24924781       30
O        5.52978378       6.18006956      11.49986924       31
O        3.24542748       0.72551647       7.68266888       32
O        6.66850380       3.63471538       4.06644817       33
O        3.60072514       5.08574833       9.94100669       34
O        0.17764883       7.99494724       1.80811035       35
O        6.23720913       8.31594079       6.36876741       36
O        2.81413282       4.76475478       5.38034964       37
O        0.60894349       3.95570894      11.25490816       38
O        4.03201981       0.40452292       0.49420889       39
O        4.21008223       7.30718556       6.24438704       40
O        0.78700592       5.77351001       5.50473001       41
O        2.63607039       2.94695370      11.37928853       42
O        6.05914671       1.41327815       0.36982852       43
