50
Lattice="8.520029717085304 0.0 0.0 -4.929657040110851 6.949056615606338 0.0 -2.489426547619508 1.286213302368965 9.240552056396586" Properties=species:S:1:pos:R:3:spacegroup_kinds:I:1 spacegroup="P 1" unit_cell=conventional occupancy="_JSON {\"0\": {\"Ni\": 1.0}, \"1\": {\"Ni\": 1.0}, \"2\": {\"H\": 1.0}, \"3\": {\"H\": 1.0}, \"4\": {\"H\": 1.0}, \"5\": {\"H\": 1.0}, \"6\": {\"H\": 1.0}, \"7\": {\"H\": 1.0}, \"8\": {\"H\": 1.0}, \"9\": {\"H\": 1.0}, \"10\": {\"H\": 1.0}, \"11\": {\"H\": 1.0}, \"12\": {\"H\": 1.0}, \"13\": {\"H\": 1.0}, \"14\": {\"H\": 1.0}, \"15\": {\"H\": 1.0}, \"16\": {\"H\": 1.0}, \"17\": {\"H\": 1.0}, \"18\": {\"H\": 1.0}, \"19\": {\"H\": 1.0}, \"20\": {\"H\": 1.0}, \"21\": {\"H\": 1.0}, \"22\": {\"C\": 1.0}, \"23\": {\"C\": 1.0}, \"24\": {\"C\": 1.0}, \"25\": {\"C\": 1.0}, \"26\": {\"C\": 1.0}, \"27\": {\"C\": 1.0}, \"28\": {\"C\": 1.0}, \"29\": {\"C\": 1.0}, \"30\": {\"S\": 1.0}, \"31\": {\"S\": 1.0}, \"32\": {\"S\": 1.0}, \"33\": {\"S\": 1.0}, \"34\": {\"N\": 1.0}, \"35\": {\"N\": 1.0}, \"36\": {\"N\": 1.0}, \"37\": {\"N\": 1.0}, \"38\": {\"N\": 1.0}, \"39\": {\"N\": 1.0}, \"40\": {\"N\": 1.0}, \"41\": {\"N\": 1.0}, \"42\": {\"N\": 1.0}, \"43\": {\"N\": 1.0}, \"44\": {\"N\": 1.0}, \"45\": {\"N\": 1.0}, \"46\": {\"N\": 1.0}, \"47\": {\"N\": 1.0}, \"48\": {\"N\": 1.0}, \"49\": {\"N\": 1.0}}" pbc="T T T"
Ni       1.32591740       7.14458935       6.93041404        0
Ni      -0.22497127       1.09068057       2.31013801        1
H       -0.29043537       1.73862600       6.72029572        2
H       -2.14804708       2.69839920       7.14053237        3
H        1.39138150       6.49664392       2.52025634        4
H        3.24899321       5.53687071       2.10001969        5
H       -3.85083874       5.31377252       5.07190018        6
H        2.82792889       1.86305019       8.78892791        7
H        4.95178487       2.92149740       4.16865188        8
H       -1.72698276       6.37221972       0.45162415        9
H        0.78833239       4.93394033       5.93549808       10
H       -0.16607452       5.42705424       7.92533000       11
H        0.31261374       3.30132959       3.30505397       12
H        1.26702065       2.80821568       1.31522206       13
H        1.81961106       1.62656301       5.71447169       14
H       -3.46031214       4.35454367       8.14635640       15
H       -0.71866494       6.60870690       3.52608037       16
H        4.56125827       3.88072625       1.09419566       17
H       -2.56249051       6.97002432       5.34652720       18
H        3.43335783       3.87214625       8.51430089       19
H        3.66343664       1.26524560       3.89402486       20
H       -2.33241170       4.36312367       0.72625117       21
C       -4.51808789       7.07226927       5.90167552       22
C        4.64825152       2.33629195       7.95915257       23
C        5.61903402       1.16300065       3.33887654       24
C       -3.54730539       5.89897797       1.28139949       25
C        2.66411156       5.06150444       5.44991552       26
C       -1.14735018       7.03077435       8.41091256       27
C       -1.56316543       3.17376548       3.79063653       28
C        2.24829631       1.20449557       0.82963949       29
S        2.64682861       3.63378430       4.46486820       30
S        0.18760750       4.90439134       0.15540783       31
S       -1.54588248       4.60148562       4.77568386       32
S        0.91333863       3.33087857       9.08514423       33
N       -5.51473202       7.76157041       6.40239098       34
N        5.78710980       1.92224195       7.45843711       35
N        6.61567814       0.47369951       2.83816108       36
N       -4.68616367       6.31302797       1.78211495       37
N       -4.67760591       5.77813603       5.47530008       38
N        3.68503469       1.45740618       8.38552801       39
N        5.77855204       2.45713389       3.76525198       40
N       -2.58408856       6.77786374       0.85502405       41
N        1.62304345       5.50471587       6.11151937       42
N       -0.18350260       6.43810495       7.74930872       43
N       -0.52209732       2.73055405       3.12903269       44
N        1.28444873       1.79716497       1.49124334       45
N       -3.26028351       7.56508597       5.78143142       46
N        4.32243892       3.64731685       8.07939667       47
N        4.36122964       0.67018395       3.45912064       48
N       -3.22149279       4.58795307       1.16115539       49
