22
Lattice="8.954164206536754 0.0 0.0 4.477082103268378 7.75453367251816 0.0 4.477082103268378 2.5848445575060537 7.311044459702684" Properties=species:S:1:pos:R:3:spacegroup_kinds:I:1 spacegroup="P 1" unit_cell=conventional occupancy="_JSON {\"0\": {\"K\": 1.0}, \"1\": {\"K\": 1.0}, \"2\": {\"K\": 1.0}, \"3\": {\"K\": 1.0}, \"4\": {\"Zn\": 1.0}, \"5\": {\"Zn\": 1.0}, \"6\": {\"C\": 1.0}, \"7\": {\"C\": 1.0}, \"8\": {\"C\": 1.0}, \"9\": {\"C\": 1.0}, \"10\": {\"C\": 1.0}, \"11\": {\"C\": 1.0}, \"12\": {\"C\": 1.0}, \"13\": {\"C\": 1.0}, \"14\": {\"N\": 1.0}, \"15\": {\"N\": 1.0}, \"16\": {\"N\": 1.0}, \"17\": {\"N\": 1.0}, \"18\": {\"N\": 1.0}, \"19\": {\"N\": 1.0}, \"20\": {\"N\": 1.0}, \"21\": {\"N\": 1.0}}" pbc="T T T"
K        6.71562315       1.29242228       0.91388056        0
K        4.47708210       5.16968911       0.91388056        1
K        4.47708210       2.58484456       4.56940279        2
K        2.23854105       1.29242228       0.91388056        3
Zn       8.95416421       5.16968912       3.65552223        4
Zn      13.43124631       7.75453367       5.48328334        5
C       10.59419716       4.22281565       2.98598158        6
C        8.95416421       7.06343605       2.98598158        7
C        8.95416421       5.16968911       5.66414418        8
C        7.31413125       4.22281565       2.98598158        9
C       11.79121336       8.70140714       6.15282399       10
C       13.43124631       5.86078674       6.15282399       11
C       13.43124631       7.75453367       3.47466139       12
C       15.07127926       8.70140714       6.15282399       13
N       11.55004376       3.67095736       2.59575884       14
N        8.95416421       8.16715263       2.59575884       15
N        8.95416421       5.16968912       6.83481240       16
N        6.35828465       3.67095736       2.59575884       17
N       10.83536676       9.25326543       6.54304674       18
N       13.43124631       4.75707015       6.54304674       19
N       13.43124631       7.75453367       2.30399317       20
N       16.02712586       9.25326543       6.54304674       21
