21
Lattice="7.513500654862324 0.0 0.0 -3.392388734869575 6.70405778332396 0.0 -3.392388734723526 -5.518600451191772 3.806499681236708" Properties=species:S:1:pos:R:3:spacegroup_kinds:I:1 spacegroup="P 1" unit_cell=conventional occupancy="_JSON {\"0\": {\"Ni\": 1.0}, \"1\": {\"Ni\": 1.0}, \"2\": {\"Ni\": 1.0}, \"3\": {\"C\": 1.0}, \"4\": {\"C\": 1.0}, \"5\": {\"C\": 1.0}, \"6\": {\"C\": 1.0}, \"7\": {\"C\": 1.0}, \"8\": {\"C\": 1.0}, \"9\": {\"C\": 1.0}, \"10\": {\"C\": 1.0}, \"11\": {\"C\": 1.0}, \"12\": {\"C\": 1.0}, \"13\": {\"C\": 1.0}, \"14\": {\"C\": 1.0}, \"15\": {\"C\": 1.0}, \"16\": {\"C\": 1.0}, \"17\": {\"C\": 1.0}, \"18\": {\"P\": 1.0}, \"19\": {\"P\": 1.0}, \"20\": {\"P\": 1.0}}" pbc="T T T"
Ni       1.11142088      -0.41326152       2.58515927        0
Ni      -0.87055303       0.80509557       2.58515927        1
Ni       1.11142088       1.80801442       1.89338781        2
C        3.06226404      -1.95857818       1.55764755        3
C       -3.13020686      -0.63684911       2.33151960        4
C        0.84506618       3.85962005       0.17015177        5
C        0.84506618      -3.08052510       2.33151960        6
C       -3.13020686       1.84805155       1.55764755        7
C        3.06226404       2.49666633       0.17015177        8
C        2.32335519      -2.89191842       2.46392046        9
C       -3.62937510       0.76733819       2.46392046       10
C        2.32335519       3.77954003       0.38622967       11
C        0.60204722      -1.90831109       1.44885011       12
C       -1.97455310       1.08970183       1.00844865       13
C        1.86382838       1.61787277       0.10913380       14
C        1.86382838      -1.26982432       1.00844865       15
C       -1.97455310      -0.32442583       1.44885011       16
C        0.60204722       2.39351367       0.10913380       17
P        3.21049040       5.22269561       0.59679014       18
P        3.21049040      -3.96033115       3.45665808       19
P       -4.98323246       1.07650624       3.45665808       20
