29
Lattice="7.454102591431599 0.0 0.0 3.7270512957158 6.455442206595181 0.0 3.7270512957158 2.1518140688650607 6.086249279788402" Properties=species:S:1:pos:R:3:spacegroup_kinds:I:1 spacegroup="P 1" unit_cell=conventional occupancy="_JSON {\"0\": {\"C\": 1.0}, \"1\": {\"C\": 1.0}, \"2\": {\"C\": 1.0}, \"3\": {\"C\": 1.0}, \"4\": {\"C\": 1.0}, \"5\": {\"C\": 1.0}, \"6\": {\"Cr\": 1.0}, \"7\": {\"Cr\": 1.0}, \"8\": {\"Cr\": 1.0}, \"9\": {\"Cr\": 1.0}, \"10\": {\"Cr\": 1.0}, \"11\": {\"Cr\": 1.0}, \"12\": {\"Cr\": 1.0}, \"13\": {\"Cr\": 1.0}, \"14\": {\"Cr\": 1.0}, \"15\": {\"Cr\": 1.0}, \"16\": {\"Cr\": 1.0}, \"17\": {\"Cr\": 1.0}, \"18\": {\"Cr\": 1.0}, \"19\": {\"Cr\": 1.0}, \"20\": {\"Cr\": 1.0}, \"21\": {\"Cr\": 1.0}, \"22\": {\"Cr\": 1.0}, \"23\": {\"Cr\": 1.0}, \"24\": {\"Cr\": 1.0}, \"25\": {\"Cr\": 1.0}, \"26\": {\"Cr\": 1.0}, \"27\": {\"Cr\": 1.0}, \"28\": {\"Cr\": 1.0}}" pbc="T T T"
C        7.45410259       6.22611409       4.40252750        0
C        9.11902427       3.34238516       4.40252750        1
C        9.11902427       5.26487112       1.68372178        2
C        5.78918091       3.34238516       4.40252750        3
C        5.78918091       5.26487112       1.68372178        4
C        7.45410259       2.38114218       1.68372178        5
Cr       4.92204800       0.00000000       0.00000000        6
Cr       3.72705130       3.61369647       4.01883536        7
Cr       3.72705130       4.99355981       2.06741392        8
Cr       2.53205459       0.00000000       0.00000000        9
Cr       9.91512659       4.26261861       0.00000000       10
Cr       4.99307859       1.42087287       4.01883536       11
Cr       2.46102400       1.42087287       4.01883536       12
Cr       4.99307859       4.26261861       0.00000000       13
Cr       6.18807529       0.73094120       2.06741392       14
Cr       8.72012989       2.19282360       0.00000000       15
Cr       6.18807529       2.19282360       0.00000000       16
Cr       1.26602730       0.73094120       2.06741392       17
Cr       9.22408381       5.32552727       3.76571645       18
Cr       7.45410259       4.30362814       5.21090006       19
Cr       7.45410259       6.34742640       2.32053283       20
Cr       5.68412137       5.32552727       3.76571645       21
Cr       9.22408381       3.28172901       2.32053283       22
Cr       7.45410259       2.25982987       3.76571645       23
Cr       7.45410259       4.30362814       0.87534922       24
Cr       5.68412137       3.28172901       2.32053283       25
Cr      11.18115389       6.45544221       4.56468696       26
Cr       3.72705130       2.15181407       1.52156232       27
Cr       0.00000000       0.00000000       0.00000000       28
