16
Lattice="7.144027784351426 0.0 0.0 3.572013892175714 6.186909546590192 0.0 3.572013892175714 2.062303182196731 5.833074259975617" Properties=species:S:1:pos:R:3:spacegroup_kinds:I:1 spacegroup="P 1" unit_cell=conventional occupancy="_JSON {\"0\": {\"Ca\": 1.0}, \"1\": {\"Ca\": 1.0}, \"2\": {\"Ca\": 1.0}, \"3\": {\"Ca\": 1.0}, \"4\": {\"Ca\": 1.0}, \"5\": {\"Ca\": 1.0}, \"6\": {\"Ca\": 1.0}, \"7\": {\"Ca\": 1.0}, \"8\": {\"H\": 1.0}, \"9\": {\"H\": 1.0}, \"10\": {\"H\": 1.0}, \"11\": {\"H\": 1.0}, \"12\": {\"N\": 1.0}, \"13\": {\"N\": 1.0}, \"14\": {\"N\": 1.0}, \"15\": {\"N\": 1.0}}" pbc="T T T"
Ca       9.10387143       2.99309011       2.11643431        0
Ca       7.14402778       6.38763887       2.11643431        1
Ca       7.14402778       4.12460636       5.31684558        2
Ca       5.18418414       2.99309011       2.11643431        3
Ca       8.75619803       7.31842580       5.17490851        4
Ca      10.71604168       3.92387704       5.17490851        5
Ca      10.71604168       6.18690955       1.97449724        6
Ca      12.67588532       7.31842580       5.17490851        7
H        5.35802084       5.15575796       3.64567141        8
H        7.14402778       2.06230318       3.64567141        9
H        7.14402778       4.12460636       0.72913428       10
H        8.93003473       5.15575796       3.64567141       11
N        5.35802084       1.03115159       0.72913428       12
N        3.57201389       4.12460636       0.72913428       13
N        3.57201389       2.06230318       3.64567141       14
N        1.78600695       1.03115159       0.72913428       15
