39
Lattice="10.514708997349755 0.0 0.0 5.6376919467126765 8.875558281760023 0.0 -0.649490221105515 1.1819906001973464 5.100482400032548" Properties=species:S:1:pos:R:3:spacegroup_kinds:I:1 spacegroup="P 1" unit_cell=conventional occupancy="_JSON {\"0\": {\"Mg\": 1.0}, \"1\": {\"Mg\": 1.0}, \"2\": {\"Mg\": 1.0}, \"3\": {\"Mg\": 1.0}, \"4\": {\"Mg\": 1.0}, \"5\": {\"Ca\": 1.0}, \"6\": {\"Ca\": 1.0}, \"7\": {\"O\": 1.0}, \"8\": {\"O\": 1.0}, \"9\": {\"O\": 1.0}, \"10\": {\"O\": 1.0}, \"11\": {\"O\": 1.0}, \"12\": {\"O\": 1.0}, \"13\": {\"O\": 1.0}, \"14\": {\"O\": 1.0}, \"15\": {\"O\": 1.0}, \"16\": {\"O\": 1.0}, \"17\": {\"O\": 1.0}, \"18\": {\"O\": 1.0}, \"19\": {\"O\": 1.0}, \"20\": {\"O\": 1.0}, \"21\": {\"O\": 1.0}, \"22\": {\"O\": 1.0}, \"23\": {\"O\": 1.0}, \"24\": {\"O\": 1.0}, \"25\": {\"O\": 1.0}, \"26\": {\"O\": 1.0}, \"27\": {\"O\": 1.0}, \"28\": {\"O\": 1.0}, \"29\": {\"O\": 1.0}, \"30\": {\"O\": 1.0}, \"31\": {\"Si\": 1.0}, \"32\": {\"Si\": 1.0}, \"33\": {\"Si\": 1.0}, \"34\": {\"Si\": 1.0}, \"35\": {\"Si\": 1.0}, \"36\": {\"Si\": 1.0}, \"37\": {\"Si\": 1.0}, \"38\": {\"Si\": 1.0}}" pbc="T T T"
Mg      14.21024801       8.57780661       2.55024120        0
Mg       1.29266272       1.47974227       2.55024120        1
Mg      13.23822428       7.27425177       0.00000000        2
Mg       2.91417667       1.60130651       0.00000000        3
Mg       0.00000000       0.00000000       0.00000000        4
Ca      11.23505205       6.94297070       2.55024120        5
Ca       4.26785867       3.11457818       2.55024120        6
O        8.01949803       1.11493083       4.06924323        7
O       10.91144820       2.70402414       4.06924323        8
O        4.59146253       7.35352475       1.03123917        9
O        7.48341269       8.94261805       1.03123917       10
O       10.88562532       8.69829228       4.02548645       11
O        2.97352911       4.35068654       4.02548645       12
O       12.52938161       5.70686234       1.07499595       13
O        4.61728541       1.35925660       1.07499595       14
O        8.78341230       7.60992522       3.00599007       15
O        5.01937695       5.54163115       3.00599007       16
O       10.48353378       4.51591774       2.09449233       17
O        6.71949842       2.44762366       2.09449233       18
O        6.07470614       2.91443625       4.57344210       19
O       10.43521270       5.31048438       4.57344210       20
O        5.06769803       4.74706450       0.52704030       21
O        9.42820458       7.14311263       0.52704030       22
O        2.95525361       1.34827740       3.69819191       23
O       13.42978407       7.10391125       3.69819191       24
O        2.07312665       2.95363763       1.40229049       25
O       12.54765712       8.70927148       1.40229049       26
O        8.46081844       3.73782276       3.68518636       27
O        7.04209228       6.31972612       1.41529604       28
O        9.94860237       1.03024294       1.94145450       29
O        5.55430835       9.02730594       3.15902790       30
Si       9.28436853       8.79355568       4.09956034       31
Si       3.75166540       5.75339903       4.09956034       32
Si      11.75124532       4.30414985       1.00092206       33
Si       6.21854219       1.26399321       1.00092206       34
Si       7.36596579       2.52271961       3.60969571       35
Si      10.07352696       4.01049330       3.60969571       36
Si       5.42938376       6.04705559       1.49078669       37
Si       8.13694494       7.53482927       1.49078669       38
