12
Lattice="7.324890580854393 0.0 0.0 -0.0005394850242424582 7.324890560987605 0.0 -3.662175547915074 -3.6624452804938015 5.179670534419251" Properties=species:S:1:pos:R:3:spacegroup_kinds:I:1 spacegroup="P 1" unit_cell=conventional occupancy="_JSON {\"0\": {\"Ca\": 1.0}, \"1\": {\"Ca\": 1.0}, \"2\": {\"Ca\": 1.0}, \"3\": {\"Ca\": 1.0}, \"4\": {\"Ca\": 1.0}, \"5\": {\"Ca\": 1.0}, \"6\": {\"Ca\": 1.0}, \"7\": {\"Ca\": 1.0}, \"8\": {\"N\": 1.0}, \"9\": {\"N\": 1.0}, \"10\": {\"N\": 1.0}, \"11\": {\"N\": 1.0}}" pbc="T T T"
Ca      -2.04777240       0.00007858       3.73156790        0
Ca      -0.00049915       5.71021766       1.14173263        1
Ca       3.66240495       1.61467290       1.44810263        2
Ca       2.04750265       3.66236670       4.03793790        3
Ca       2.04777240      -0.00007858       3.73156790        4
Ca      -0.00004034       1.61467290       1.14173263        5
Ca       3.66194614       5.71021766       1.44810263        6
Ca      -2.04804214       3.66252386       4.03793790        7
N        3.66258016      -1.83122264       3.88475290        8
N        1.83122265      -0.00000000       1.29491763        9
N        3.66231042       1.83122264       3.88475290       10
N        5.49366794       0.00000000       1.29491763       11
