40
Lattice="5.204422241290521 0.0 0.0 0.0 16.209911349348 0.0 -1.1097162024894325 0.0 5.461085970942142" Properties=species:S:1:pos:R:3:spacegroup_kinds:I:1 spacegroup="P 1" unit_cell=conventional occupancy="_JSON {\"0\": {\"Ge\": 1.0}, \"1\": {\"Ge\": 1.0}, \"2\": {\"Ge\": 1.0}, \"3\": {\"Ge\": 1.0}, \"4\": {\"O\": 1.0}, \"5\": {\"O\": 1.0}, \"6\": {\"O\": 1.0}, \"7\": {\"O\": 1.0}, \"8\": {\"O\": 1.0}, \"9\": {\"O\": 1.0}, \"10\": {\"O\": 1.0}, \"11\": {\"O\": 1.0}, \"12\": {\"O\": 1.0}, \"13\": {\"O\": 1.0}, \"14\": {\"O\": 1.0}, \"15\": {\"O\": 1.0}, \"16\": {\"O\": 1.0}, \"17\": {\"O\": 1.0}, \"18\": {\"O\": 1.0}, \"19\": {\"O\": 1.0}, \"20\": {\"O\": 1.0}, \"21\": {\"O\": 1.0}, \"22\": {\"O\": 1.0}, \"23\": {\"O\": 1.0}, \"24\": {\"H\": 1.0}, \"25\": {\"H\": 1.0}, \"26\": {\"H\": 1.0}, \"27\": {\"H\": 1.0}, \"28\": {\"H\": 1.0}, \"29\": {\"H\": 1.0}, \"30\": {\"H\": 1.0}, \"31\": {\"H\": 1.0}, \"32\": {\"Ca\": 1.0}, \"33\": {\"Ca\": 1.0}, \"34\": {\"Ca\": 1.0}, \"35\": {\"Ca\": 1.0}, \"36\": {\"Cu\": 1.0}, \"37\": {\"Cu\": 1.0}, \"38\": {\"Cu\": 1.0}, \"39\": {\"Cu\": 1.0}}" pbc="T T T"
Ge       4.64147048       1.80114132       2.54479977        0
Ge       4.08661238       6.30381435       5.27534276        1
Ge       0.00809366       9.90609699       0.18574321        2
Ge      -0.54676444      14.40877003       2.91628620        3
O        4.67357005       4.67480375       0.25521600        4
O        4.11871195       3.43015193       2.98575899        5
O       -0.02400591      12.77975942       2.47532698        6
O       -0.57886401      11.53510760       5.20586997        7
O        4.27590220       1.44299318       0.84351278        8
O        3.72104410       6.66196250       3.57405576        9
O        0.37366194       9.54794885       1.88703021       10
O       -0.18119616      14.76691817       4.61757319       11
O        2.90466405      14.49471842       2.55674881       12
O        2.34980595       9.82014860       5.28729180       13
O        1.74490009       6.38976275       0.17379417       14
O        1.19004198       1.71519293       2.90433716       15
O        1.77981807       3.38996564       0.74278399       16
O        1.22495997       4.71499004       3.47332698       17
O        2.86974607      11.49492131       1.98775899       18
O        2.31488797      12.81994571       4.71830198       19
O        4.17422159       7.35127564       0.92336880       20
O        3.61936349       0.75368003       3.65391178       21
O        0.47534255      15.45623132       1.80717419       22
O       -0.07951555       8.85863571       4.53771717       23
H        3.77053904      11.93196315       2.18277033       24
H        3.21568094      12.38290387       4.91331331       25
H        0.87902510       3.82700747       0.54777266       26
H        0.32416700       4.27794820       3.27831565       27
H        1.62219807       2.71696062       1.46125498       28
H        1.06733997       5.38799506       4.19179796       29
H        3.02736607      10.82191629       1.26928801       30
H        2.47250797      13.49295073       3.99983100       31
Ca       3.03966501       5.22369466       1.88264787       32
Ca       2.48480691       2.88126101       4.61319086       33
Ca       1.60989913      13.32865034       0.84789512       34
Ca       1.05504103      10.98621669       3.57843810       35
Cu       2.60221112       8.10495567       0.00000000       36
Cu       2.04735302       0.00000000       2.73054299       37
Cu      -0.55485810       8.10495567       2.73054299       38
Cu       0.00000000       0.00000000       0.00000000       39
