40
Lattice="10.2444617749761 0.0 0.0 0.0 9.368930239835 0.0 -1.2756654230142348 0.0 5.11714016318906" Properties=species:S:1:pos:R:3:spacegroup_kinds:I:1 spacegroup="P 1" unit_cell=conventional occupancy="_JSON {\"0\": {\"Cu\": 1.0}, \"1\": {\"Cu\": 1.0}, \"2\": {\"Cu\": 1.0}, \"3\": {\"Cu\": 1.0}, \"4\": {\"Ca\": 1.0}, \"5\": {\"Ca\": 1.0}, \"6\": {\"Ca\": 1.0}, \"7\": {\"Ca\": 1.0}, \"8\": {\"O\": 1.0}, \"9\": {\"O\": 1.0}, \"10\": {\"O\": 1.0}, \"11\": {\"O\": 1.0}, \"12\": {\"O\": 1.0}, \"13\": {\"O\": 1.0}, \"14\": {\"O\": 1.0}, \"15\": {\"O\": 1.0}, \"16\": {\"O\": 1.0}, \"17\": {\"O\": 1.0}, \"18\": {\"O\": 1.0}, \"19\": {\"O\": 1.0}, \"20\": {\"O\": 1.0}, \"21\": {\"O\": 1.0}, \"22\": {\"O\": 1.0}, \"23\": {\"O\": 1.0}, \"24\": {\"O\": 1.0}, \"25\": {\"O\": 1.0}, \"26\": {\"O\": 1.0}, \"27\": {\"O\": 1.0}, \"28\": {\"O\": 1.0}, \"29\": {\"O\": 1.0}, \"30\": {\"O\": 1.0}, \"31\": {\"O\": 1.0}, \"32\": {\"Ge\": 1.0}, \"33\": {\"Ge\": 1.0}, \"34\": {\"Ge\": 1.0}, \"35\": {\"Ge\": 1.0}, \"36\": {\"Ge\": 1.0}, \"37\": {\"Ge\": 1.0}, \"38\": {\"Ge\": 1.0}, \"39\": {\"Ge\": 1.0}}" pbc="T T T"
Cu       1.72140354       1.45847929       2.43728328        0
Cu       1.08357083       3.22598583       4.99585336        1
Cu       7.88522552       6.14294441       0.12128681        2
Cu       7.24739281       7.91045095       2.67985689        3
Ca       7.29534127       0.41744472       0.14179194        4
Ca       6.65750856       4.26702040       2.70036203        5
Ca       2.31128779       5.10190984       2.41677814        6
Ca       1.67345508       8.95148552       4.97534822        7
O        8.79564733       1.79041926       1.55798367        8
O        8.15781462       2.89404586       4.11655375        9
O        0.81098173       6.47488438       1.00058641       10
O        0.17314902       7.57851098       3.55915649       11
O        8.62288102       8.11061462       1.34013751       12
O        7.98504831       5.94278074       3.89870759       13
O        0.98374805       3.42614950       1.21843257       14
O        0.34591533       1.25831562       3.77700265       15
O        8.40643375       4.53297364       1.15743961       16
O        7.76860104       0.15149148       3.71600969       17
O        1.20019532       9.21743875       1.40113048       18
O        0.56236260       4.83595660       3.95970056       19
O        5.89444022       2.31161917       0.97063262       20
O        5.25660751       2.37284595       3.52920270       21
O        3.71218884       6.99608429       1.58793746       22
O        3.07435613       7.05731107       4.14650755       23
O        4.26379424       4.47564296       0.91237772       24
O        3.62596153       0.20882216       3.47094780       25
O        5.34283482       9.16010808       1.64619236       26
O        4.70500211       4.89328728       4.20476244       27
O        3.15538921       1.71038539       1.17531963       28
O        2.51755650       2.97407973       3.73388971       29
O        6.45123985       6.39485051       1.38325045       30
O        5.81340714       7.65854485       3.94182053       31
Ge       9.53307708       3.26424967       0.77352357       32
Ge       8.89524437       1.42021545       3.33209365       33
Ge       0.07355198       7.94871479       1.78504651       34
Ge      -0.56428073       6.10468057       4.34361659       35
Ge       4.66289709       1.39532558       2.13181395       36
Ge       4.02506438       3.28913954       4.69038403       37
Ge       4.94373197       6.07979070       0.42675614       38
Ge       4.30589926       7.97360466       2.98532622       39
