10
Lattice="5.368866155880849 0.0 0.0 2.684433077940424 4.64957448051132 0.0 2.684433077940424 1.5498581601704398 4.383660859735297" Properties=species:S:1:pos:R:3:spacegroup_kinds:I:1 spacegroup="P 1" unit_cell=conventional occupancy="_JSON {\"0\": {\"V\": 1.0}, \"1\": {\"V\": 1.0}, \"2\": {\"Ca\": 1.0}, \"3\": {\"Ca\": 1.0}, \"4\": {\"O\": 1.0}, \"5\": {\"O\": 1.0}, \"6\": {\"O\": 1.0}, \"7\": {\"O\": 1.0}, \"8\": {\"O\": 1.0}, \"9\": {\"O\": 1.0}}" pbc="T T T"
V        0.00000000       0.00000000       0.00000000        0
V        5.36886616       3.09971632       2.19183043        1
Ca       8.05329923       4.64957448       3.28774564        2
Ca       2.68443308       1.54985816       1.09591521        3
O        5.36886616       4.64956089       3.28773603        4
O        6.71107092       2.32479404       3.28773603        5
O        6.71107092       3.87463860       1.09592483        6
O        4.02666139       2.32479404       3.28773603        7
O        4.02666139       3.87463860       1.09592483        8
O        5.36886616       1.54987175       1.09592483        9
