24
Lattice="8.73726681294566 0.0 0.0 0.0 6.8013172882719 0.0 -5.840673338031473 0.0 6.242193522670329" Properties=species:S:1:pos:R:3:spacegroup_kinds:I:1 spacegroup="P 1" unit_cell=conventional occupancy="_JSON {\"0\": {\"Ca\": 1.0}, \"1\": {\"Ca\": 1.0}, \"2\": {\"Ca\": 1.0}, \"3\": {\"Ca\": 1.0}, \"4\": {\"O\": 1.0}, \"5\": {\"O\": 1.0}, \"6\": {\"O\": 1.0}, \"7\": {\"O\": 1.0}, \"8\": {\"O\": 1.0}, \"9\": {\"O\": 1.0}, \"10\": {\"O\": 1.0}, \"11\": {\"O\": 1.0}, \"12\": {\"O\": 1.0}, \"13\": {\"O\": 1.0}, \"14\": {\"O\": 1.0}, \"15\": {\"O\": 1.0}, \"16\": {\"O\": 1.0}, \"17\": {\"O\": 1.0}, \"18\": {\"O\": 1.0}, \"19\": {\"O\": 1.0}, \"20\": {\"Se\": 1.0}, \"21\": {\"Se\": 1.0}, \"22\": {\"Se\": 1.0}, \"23\": {\"Se\": 1.0}}" pbc="T T T"
Ca      -1.25255663       5.85618567       2.65798611        0
Ca       7.06948678       2.45552703       0.46311065        1
Ca       4.14915011       0.94513162       3.58420741        2
Ca      -4.17289330       4.34579026       5.77908287        3
O       -0.89047037       3.47724287       2.56375773        4
O        6.70740052       0.07658423       0.55733903        5
O        3.78706385       3.32407442       3.67843579        6
O       -3.81080704       6.72473306       5.68485449        7
O       -2.11055903       1.21774521       3.28071579        8
O        2.08681584       4.61840385       6.08257449        9
O        5.00715251       5.58357208       2.96147773       10
O        0.80977763       2.18291344       0.15961903       11
O       -0.11218875       5.46668892       4.67161434       12
O        0.08844556       2.06603028       4.69167594       13
O        3.00878223       1.33462837       1.57057918       14
O        2.80814792       4.73528701       1.55051758       15
O       -2.29865080       3.39129599       4.89564843       16
O        2.27490761       6.79195464       4.46764186       17
O        5.19524427       3.41002130       1.34654510       18
O        0.62168587       0.00936265       1.77455166       19
Se      -1.27568595       2.55316520       3.91578102       20
Se       1.25194276       5.95382385       5.44750926       21
Se       4.17227943       4.24815209       2.32641250       22
Se       1.64465072       0.84749344       0.79468426       23
