16
Lattice="7.072460691569786 0.0 0.0 0.21039866195243836 7.521895649165841 0.0 1.0895148943105004 3.4851634409009438 8.567307956344305" Properties=species:S:1:pos:R:3:spacegroup_kinds:I:1 spacegroup="P 1" unit_cell=conventional occupancy="_JSON {\"0\": {\"Ga\": 1.0}, \"1\": {\"Ga\": 1.0}, \"2\": {\"Cu\": 1.0}, \"3\": {\"Cu\": 1.0}, \"4\": {\"C\": 1.0}, \"5\": {\"C\": 1.0}, \"6\": {\"Cl\": 1.0}, \"7\": {\"Cl\": 1.0}, \"8\": {\"Cl\": 1.0}, \"9\": {\"Cl\": 1.0}, \"10\": {\"Cl\": 1.0}, \"11\": {\"Cl\": 1.0}, \"12\": {\"Cl\": 1.0}, \"13\": {\"Cl\": 1.0}, \"14\": {\"O\": 1.0}, \"15\": {\"O\": 1.0}}" pbc="T T T"
Ga       2.17033710       6.84055594       1.91919077        0
Ga       6.20203715       4.16650315       6.64811718        1
Cu       2.84475830      10.14126228       6.75162368        2
Cu       5.52761594       0.86579681       1.81568428        3
C        2.51574210       8.35497697       6.79475849        4
C        5.85663215       2.65208212       1.77254946        5
Cl       1.77016470       0.56098760       0.05107962        6
Cl       6.60220955      10.44607149       8.51622833        7
Cl       1.00656053       3.86880020       5.47124534        8
Cl       7.36581372       7.13825889       3.09606261        9
Cl       4.56188398       3.23734154       5.44199037       10
Cl       3.81049027       7.76971755       3.12531759       11
Cl       2.53073957       4.75635041       1.50751623       12
Cl       5.84163468       6.25070868       7.05979172       13
O        2.28161565       7.23685086       6.76526830       14
O        6.09075860       3.77020823       1.80203966       15
