36
Lattice="9.6081768662033 0.0 0.0 0.0 7.5676888944221 0.0 0.0 0.0 5.4845545386274" Properties=species:S:1:pos:R:3:spacegroup_kinds:I:1 spacegroup="P 1" unit_cell=conventional occupancy="_JSON {\"0\": {\"C\": 1.0}, \"1\": {\"C\": 1.0}, \"2\": {\"C\": 1.0}, \"3\": {\"C\": 1.0}, \"4\": {\"O\": 1.0}, \"5\": {\"O\": 1.0}, \"6\": {\"O\": 1.0}, \"7\": {\"O\": 1.0}, \"8\": {\"O\": 1.0}, \"9\": {\"O\": 1.0}, \"10\": {\"O\": 1.0}, \"11\": {\"O\": 1.0}, \"12\": {\"O\": 1.0}, \"13\": {\"O\": 1.0}, \"14\": {\"O\": 1.0}, \"15\": {\"O\": 1.0}, \"16\": {\"Zn\": 1.0}, \"17\": {\"Zn\": 1.0}, \"18\": {\"Zn\": 1.0}, \"19\": {\"Zn\": 1.0}, \"20\": {\"N\": 1.0}, \"21\": {\"N\": 1.0}, \"22\": {\"N\": 1.0}, \"23\": {\"N\": 1.0}, \"24\": {\"H\": 1.0}, \"25\": {\"H\": 1.0}, \"26\": {\"H\": 1.0}, \"27\": {\"H\": 1.0}, \"28\": {\"H\": 1.0}, \"29\": {\"H\": 1.0}, \"30\": {\"H\": 1.0}, \"31\": {\"H\": 1.0}, \"32\": {\"H\": 1.0}, \"33\": {\"H\": 1.0}, \"34\": {\"H\": 1.0}, \"35\": {\"H\": 1.0}}" pbc="T T T"
C        3.66836757       4.95032325       3.28749081        0
C        8.47245601       6.40121009       3.28749081        1
C        5.93980929       2.61736565       0.54521355        2
C        1.13572086       1.16647880       0.54521355        3
O        3.28600728       5.97635906       3.99255203        4
O        8.09009572       5.37517428       3.99255203        5
O        6.32216958       1.59132983       1.25027476        6
O        1.51808115       2.19251462       1.25027476        7
O        2.79288174       4.19400510       2.73062748        8
O        7.59697017       7.15752825       2.73062748        9
O        6.81529513       3.37368380       5.47290475       10
O        2.01120670       0.41016065       5.47290475       11
O        0.13632543       6.63319951       3.12851739       12
O        4.94041386       4.71833383       3.12851739       13
O        9.47185144       0.93448939       0.38624012       14
O        4.66776300       2.84935506       0.38624012       15
Zn       1.42525871       6.27252332       4.59309547       16
Zn       6.22934714       5.07901002       4.59309547       17
Zn       8.18291816       1.29516557       1.85081821       18
Zn       3.37882972       2.48867888       1.85081821       19
N        4.18353466       1.28416687       3.25029435       20
N        8.98762309       2.49967757       3.25029435       21
N        5.42464220       6.28352202       0.50801708       22
N        0.62055377       5.06801132       0.50801708       23
H        5.37430630       5.79050773       1.41019936       24
H        0.57021787       5.56102561       1.41019936       25
H        4.23387056       1.77718116       4.15247663       26
H        9.03795900       2.00666329       4.15247663       27
H        4.46955968       6.45089624       0.17094757       28
H        9.27364812       4.90063710       0.17094757       29
H        5.13861718       1.11679265       2.91322484       30
H        0.33452875       2.66705180       2.91322484       31
H        3.74372007       0.37231934       3.42374030       32
H        8.54780850       3.41152511       3.42374030       33
H        5.86445680       7.19536956       0.68146303       34
H        1.06036836       4.15616378       0.68146303       35
