40
Lattice="9.764478936151702 0.0 0.0 0.0 6.9882983416 0.0 0.09840521581704414 0.0 8.77670145987681" Properties=species:S:1:pos:R:3:spacegroup_kinds:I:1 spacegroup="P 1" unit_cell=conventional occupancy="_JSON {\"0\": {\"H\": 1.0}, \"1\": {\"H\": 1.0}, \"2\": {\"H\": 1.0}, \"3\": {\"H\": 1.0}, \"4\": {\"H\": 1.0}, \"5\": {\"H\": 1.0}, \"6\": {\"H\": 1.0}, \"7\": {\"H\": 1.0}, \"8\": {\"H\": 1.0}, \"9\": {\"H\": 1.0}, \"10\": {\"H\": 1.0}, \"11\": {\"H\": 1.0}, \"12\": {\"H\": 1.0}, \"13\": {\"H\": 1.0}, \"14\": {\"H\": 1.0}, \"15\": {\"H\": 1.0}, \"16\": {\"H\": 1.0}, \"17\": {\"H\": 1.0}, \"18\": {\"H\": 1.0}, \"19\": {\"H\": 1.0}, \"20\": {\"H\": 1.0}, \"21\": {\"H\": 1.0}, \"22\": {\"H\": 1.0}, \"23\": {\"H\": 1.0}, \"24\": {\"C\": 1.0}, \"25\": {\"C\": 1.0}, \"26\": {\"C\": 1.0}, \"27\": {\"C\": 1.0}, \"28\": {\"C\": 1.0}, \"29\": {\"C\": 1.0}, \"30\": {\"C\": 1.0}, \"31\": {\"C\": 1.0}, \"32\": {\"S\": 1.0}, \"33\": {\"S\": 1.0}, \"34\": {\"S\": 1.0}, \"35\": {\"S\": 1.0}, \"36\": {\"S\": 1.0}, \"37\": {\"S\": 1.0}, \"38\": {\"S\": 1.0}, \"39\": {\"S\": 1.0}}" pbc="T T T"
H        9.56090918       2.01724713       7.86805356        0
H        0.35117758       5.51139630       5.29699863        1
H        0.30197497       4.97105121       0.90864790        2
H        9.51170657       1.47690204       3.47970283        3
H        8.06767221       1.10209445       7.42379608        4
H        1.84441455       4.59624362       5.74125611        5
H        1.79521194       5.88620389       1.35290538        6
H        8.01846961       2.39205472       3.03544535        7
H        8.63265309       0.98905600       0.30186361        8
H        1.18102846       4.48320517       4.08648712        9
H        1.23023106       5.99924234       8.47483785       10
H        8.68185570       2.50509317       4.69021434       11
H        5.07665669       3.80751259       6.93359921       12
H        4.83543007       0.31336342       6.23145298       13
H        4.78622746       3.18078575       1.84310225       14
H        5.02745409       6.67493492       2.54524848       15
H        6.13424828       2.75338120       5.92187789       16
H        3.77783848       6.24753037       7.24317430       17
H        3.72863587       4.23491714       2.85482357       18
H        6.08504567       0.74076797       1.53352716       19
H        5.88616056       4.46409734       5.47099971       20
H        4.02592620       0.96994817       7.69405248       21
H        3.97672359       2.52420100       3.30570175       22
H        5.83695795       6.01835017       1.08264898       23
C        8.58674336       1.65502784       8.21511876       24
C        1.32534340       5.14917701       4.94993343       25
C        1.27614079       5.33327050       0.56158270       26
C        8.53754075       1.83912133       3.82676803       27
C        5.98026387       3.76520613       6.31483849       28
C        3.93182289       0.27105696       6.85021370       29
C        3.88262028       3.22309221       2.46186297       30
C        5.93106126       6.71724138       1.92648776       31
S        7.47840126       3.04031483       0.05700181       32
S        2.33528029       6.53446400       4.33134892       33
S        2.38448290       3.94798352       8.71969965       34
S        7.52760386       0.45383435       4.44535254       35
S        7.43251293       4.33751026       7.25647316       36
S        2.47957383       0.84336109       5.90857903       37
S        2.43037122       2.65078808       1.52022830       38
S        7.38331032       6.14493725       2.86812243       39
