36
Lattice="6.5241074611 0.0 0.0 0.0 6.6243275081 0.0 0.0 0.0 7.8873521105" Properties=species:S:1:pos:R:3:spacegroup_kinds:I:1 spacegroup="P 1" unit_cell=conventional occupancy="_JSON {\"0\": {\"H\": 1.0}, \"1\": {\"H\": 1.0}, \"2\": {\"H\": 1.0}, \"3\": {\"H\": 1.0}, \"4\": {\"H\": 1.0}, \"5\": {\"H\": 1.0}, \"6\": {\"H\": 1.0}, \"7\": {\"H\": 1.0}, \"8\": {\"H\": 1.0}, \"9\": {\"H\": 1.0}, \"10\": {\"H\": 1.0}, \"11\": {\"H\": 1.0}, \"12\": {\"H\": 1.0}, \"13\": {\"H\": 1.0}, \"14\": {\"H\": 1.0}, \"15\": {\"H\": 1.0}, \"16\": {\"H\": 1.0}, \"17\": {\"H\": 1.0}, \"18\": {\"H\": 1.0}, \"19\": {\"H\": 1.0}, \"20\": {\"C\": 1.0}, \"21\": {\"C\": 1.0}, \"22\": {\"C\": 1.0}, \"23\": {\"C\": 1.0}, \"24\": {\"N\": 1.0}, \"25\": {\"N\": 1.0}, \"26\": {\"N\": 1.0}, \"27\": {\"N\": 1.0}, \"28\": {\"N\": 1.0}, \"29\": {\"N\": 1.0}, \"30\": {\"N\": 1.0}, \"31\": {\"N\": 1.0}, \"32\": {\"N\": 1.0}, \"33\": {\"N\": 1.0}, \"34\": {\"N\": 1.0}, \"35\": {\"N\": 1.0}}" pbc="T T T"
H        2.27773478       3.17320684       7.42377955        0
H        5.53978851       0.13895691       0.46357256        1
H        4.24637268       6.48537059       4.40724862        2
H        0.98431895       3.45112067       3.48010349        3
H        2.18523948       3.99838716       4.51613933        4
H        5.44729321       5.93810411       3.37121278        5
H        4.33886798       0.68622340       7.31488883        6
H        1.07681425       2.62594035       0.57246328        7
H        1.57400308       2.37326099       4.65300132        8
H        4.83605681       0.93890277       3.23435079        9
H        4.95010438       5.68542474       7.17802684       10
H        1.68805065       4.25106652       0.70932527       11
H        0.65243695       3.78831662       7.29439696       12
H        3.91449068       6.14817464       0.59295515       13
H        5.87167051       0.47615287       4.53663121       14
H        2.60961678       2.83601089       3.35072090       15
H        5.77088949       4.24605583       5.25552909       16
H        2.50883576       5.69043543       2.63182302       17
H        0.75321797       0.93389207       6.57549907       18
H        4.01527170       2.37827168       1.31185304       19
C        1.79209270       6.55587145       5.29767187       20
C        5.05414644       3.38061982       2.58968024       21
C        4.73201476       3.24370769       6.53335629       22
C        1.46996103       0.06845606       1.35399582       23
N        2.61639306       5.77445864       4.91925372       24
N        5.87844679       4.16203262       2.96809839       25
N        3.90771440       2.46229489       6.91177444       26
N        0.64566067       0.84986887       0.97557767       27
N        2.37060240       5.81963226       1.62251013       28
N        5.63265613       4.11685900       6.26484199       29
N        4.15350506       2.50746851       2.32116593       30
N        0.89145133       0.80469525       5.56618618       31
N        1.84499372       3.14855001       4.00298463       32
N        5.10704745       0.16361375       3.88436748       33
N        4.67911375       6.46071376       7.82804354       34
N        1.41706002       3.47577750       0.05930858       35
