10
Lattice="6.80083280245238 0.0 0.0 3.688622742606218 5.372680195395609 0.0 3.1122100598461597 1.0992939564922133 5.259015618841298" Properties=species:S:1:pos:R:3:spacegroup_kinds:I:1 spacegroup="P 1" unit_cell=conventional occupancy="_JSON {\"0\": {\"Cu\": 1.0}, \"1\": {\"Cu\": 1.0}, \"2\": {\"Cu\": 1.0}, \"3\": {\"Cu\": 1.0}, \"4\": {\"Cl\": 1.0}, \"5\": {\"Cl\": 1.0}, \"6\": {\"Cl\": 1.0}, \"7\": {\"Cl\": 1.0}, \"8\": {\"O\": 1.0}, \"9\": {\"O\": 1.0}}" pbc="T T T"
Cu       3.25631323       1.35864375       3.28688476        0
Cu       3.54451957       3.49533687       0.65737695        1
Cu       5.10062460       0.80899677       0.65737695        2
Cu       1.70020820       0.80899677       0.65737695        3
Cl       5.22491176       2.32310986       3.75293435        4
Cl       8.37675384       4.14886429       1.50608127        5
Cl      11.77717025       5.76685783       2.82083517        6
Cl       8.62532816       3.94110340       5.06768825        7
O        3.68862274       5.37268020       0.00000000        8
O        3.40041640       1.61799354       1.31475390        9
