20
Lattice="10.495369597807505 0.0 0.0 0.0 5.8542805409 0.0 -4.697558026777785 0.0 8.982899658641623" Properties=species:S:1:pos:R:3:spacegroup_kinds:I:1 spacegroup="P 1" unit_cell=conventional occupancy="_JSON {\"0\": {\"P\": 1.0}, \"1\": {\"P\": 1.0}, \"2\": {\"P\": 1.0}, \"3\": {\"P\": 1.0}, \"4\": {\"Cl\": 1.0}, \"5\": {\"Cl\": 1.0}, \"6\": {\"Cl\": 1.0}, \"7\": {\"Cl\": 1.0}, \"8\": {\"Cl\": 1.0}, \"9\": {\"Cl\": 1.0}, \"10\": {\"Cl\": 1.0}, \"11\": {\"Cl\": 1.0}, \"12\": {\"O\": 1.0}, \"13\": {\"O\": 1.0}, \"14\": {\"O\": 1.0}, \"15\": {\"O\": 1.0}, \"16\": {\"F\": 1.0}, \"17\": {\"F\": 1.0}, \"18\": {\"F\": 1.0}, \"19\": {\"F\": 1.0}}" pbc="T T T"
P        3.56517473       5.21763676       8.56417482        0
P        5.91395375       3.56378405       4.07272499        1
P       -0.11614218       2.29049649       4.91017467        2
P        2.23263684       0.63664378       0.41872484        3
Cl       5.47543056       2.33439640       5.58500433        4
Cl       7.82420958       0.59274387       1.09355450        5
Cl      -2.02639801       5.26153667       7.88934516        6
Cl       0.32238101       3.51988414       3.39789533        7
Cl       1.86249743       4.24381193       8.14007204        8
Cl       4.21127644       4.53760888       3.64862221        9
Cl       1.58653513       1.31667166       5.33427745       10
Cl       3.93531414       1.61046861       0.84282762       11
O        4.23112769       5.83682526       7.40816639       12
O        6.57990670       2.94459555       2.91671656       13
O       -0.78209513       2.90968499       6.06618310       14
O        1.56668389       0.01745528       1.57473327       15
F        6.76011795       4.68751600       4.78217546       16
F        9.10889696       4.09390481       0.29072563       17
F       -3.31108539       1.76037573       8.69217403       18
F       -0.96230638       1.16676454       4.20072420       19
