28
Lattice="8.7550430831323 0.0 0.0 0.0 7.6490738855664 0.0 0.0 0.0 12.549510079847" Properties=species:S:1:pos:R:3:spacegroup_kinds:I:1 spacegroup="P 1" unit_cell=conventional occupancy="_JSON {\"0\": {\"K\": 1.0}, \"1\": {\"K\": 1.0}, \"2\": {\"K\": 1.0}, \"3\": {\"K\": 1.0}, \"4\": {\"K\": 1.0}, \"5\": {\"K\": 1.0}, \"6\": {\"K\": 1.0}, \"7\": {\"K\": 1.0}, \"8\": {\"Cl\": 1.0}, \"9\": {\"Cl\": 1.0}, \"10\": {\"Cl\": 1.0}, \"11\": {\"Cl\": 1.0}, \"12\": {\"Cl\": 1.0}, \"13\": {\"Cl\": 1.0}, \"14\": {\"Cl\": 1.0}, \"15\": {\"Cl\": 1.0}, \"16\": {\"Cl\": 1.0}, \"17\": {\"Cl\": 1.0}, \"18\": {\"Cl\": 1.0}, \"19\": {\"Cl\": 1.0}, \"20\": {\"Cl\": 1.0}, \"21\": {\"Cl\": 1.0}, \"22\": {\"Cl\": 1.0}, \"23\": {\"Cl\": 1.0}, \"24\": {\"Cu\": 1.0}, \"25\": {\"Cu\": 1.0}, \"26\": {\"Cu\": 1.0}, \"27\": {\"Cu\": 1.0}}" pbc="T T T"
K        7.43046321       5.73680541       5.26887155        0
K        3.05294167       5.73680541       1.00588349        1
K        1.32457987       1.91226847       7.28063853        2
K        5.70210141       1.91226847      11.54362659        3
K        3.96808442       5.73680541       9.03315688        4
K        8.34560596       5.73680541       9.79110824        5
K        4.78695866       1.91226847       3.51635320        6
K        0.40943712       1.91226847       2.75840184        7
Cl       6.74125739       0.31297230       1.50391295        8
Cl       6.74125739       3.51156465       1.50391295        9
Cl       2.36373585       0.31297230       4.77084209       10
Cl       2.36373585       3.51156465       4.77084209       11
Cl       2.01378569       4.13750924      11.04559713       12
Cl       2.01378569       7.33610159      11.04559713       13
Cl       6.39130723       4.13750924       7.77866799       14
Cl       6.39130723       7.33610159       7.77866799       15
Cl       0.18915179       5.73680541       2.48407429       16
Cl       4.56667333       5.73680541       3.79068075       17
Cl       8.56589129       1.91226847      10.06543579       18
Cl       4.18836975       1.91226847       8.75882933       19
Cl       1.47989123       5.73680541       7.04210423       20
Cl       5.85741277       5.73680541      11.78216089       21
Cl       7.27515185       1.91226847       5.50740585       22
Cl       2.89763031       1.91226847       0.76734919       23
Cu       7.04693036       5.73680541       1.21635831       24
Cu       2.66940882       5.73680541       5.05839673       25
Cu       1.70811272       1.91226847      11.33315177       26
Cu       6.08563427       1.91226847       7.49111335       27
