10
Lattice="4.72477616102059 0.0 0.0 0.0 5.7194576691248 0.0 -2.5363708650179735 0.0 6.902196569564889" Properties=species:S:1:pos:R:3:spacegroup_kinds:I:1 spacegroup="P 1" unit_cell=conventional occupancy="_JSON {\"0\": {\"K\": 1.0}, \"1\": {\"K\": 1.0}, \"2\": {\"Cl\": 1.0}, \"3\": {\"Cl\": 1.0}, \"4\": {\"O\": 1.0}, \"5\": {\"O\": 1.0}, \"6\": {\"O\": 1.0}, \"7\": {\"O\": 1.0}, \"8\": {\"O\": 1.0}, \"9\": {\"O\": 1.0}}" pbc="T T T"
K        2.26905883       4.28959325       2.03268596        0
K       -0.08065354       1.42986442       4.86951061        1
Cl       2.42021804       4.28959325       5.64460168        2
Cl      -0.23181275       1.42986442       1.25759489        3
O       -0.87749029       4.28959325       6.13528802        4
O        3.06589559       1.42986442       0.76690855        5
O        2.25918490       5.50386640       4.75553747        6
O        2.25918490       3.07532010       4.75553747        7
O       -0.07077961       2.64413757       2.14665910        8
O       -0.07077961       0.21559127       2.14665910        9
