48
Lattice="9.1541831992876 0.0 0.0 0.0 14.405099145136 0.0 0.0 0.0 8.2283395882344" Properties=species:S:1:pos:R:3:spacegroup_kinds:I:1 spacegroup="P 1" unit_cell=conventional occupancy="_JSON {\"0\": {\"S\": 1.0}, \"1\": {\"S\": 1.0}, \"2\": {\"S\": 1.0}, \"3\": {\"S\": 1.0}, \"4\": {\"S\": 1.0}, \"5\": {\"S\": 1.0}, \"6\": {\"S\": 1.0}, \"7\": {\"S\": 1.0}, \"8\": {\"S\": 1.0}, \"9\": {\"S\": 1.0}, \"10\": {\"S\": 1.0}, \"11\": {\"S\": 1.0}, \"12\": {\"S\": 1.0}, \"13\": {\"S\": 1.0}, \"14\": {\"S\": 1.0}, \"15\": {\"S\": 1.0}, \"16\": {\"S\": 1.0}, \"17\": {\"S\": 1.0}, \"18\": {\"S\": 1.0}, \"19\": {\"S\": 1.0}, \"20\": {\"S\": 1.0}, \"21\": {\"S\": 1.0}, \"22\": {\"S\": 1.0}, \"23\": {\"S\": 1.0}, \"24\": {\"N\": 1.0}, \"25\": {\"N\": 1.0}, \"26\": {\"N\": 1.0}, \"27\": {\"N\": 1.0}, \"28\": {\"N\": 1.0}, \"29\": {\"N\": 1.0}, \"30\": {\"N\": 1.0}, \"31\": {\"N\": 1.0}, \"32\": {\"N\": 1.0}, \"33\": {\"N\": 1.0}, \"34\": {\"N\": 1.0}, \"35\": {\"N\": 1.0}, \"36\": {\"N\": 1.0}, \"37\": {\"N\": 1.0}, \"38\": {\"N\": 1.0}, \"39\": {\"N\": 1.0}, \"40\": {\"Cl\": 1.0}, \"41\": {\"Cl\": 1.0}, \"42\": {\"Cl\": 1.0}, \"43\": {\"Cl\": 1.0}, \"44\": {\"Cl\": 1.0}, \"45\": {\"Cl\": 1.0}, \"46\": {\"Cl\": 1.0}, \"47\": {\"Cl\": 1.0}}" pbc="T T T"
S        4.31679466       0.60320856       2.42672524        0
S        4.31679466       6.59934101       6.54089504        1
S        8.89388626       0.60320856       1.68744455        2
S        8.89388626       6.59934101       5.80161435        3
S        4.83738854       7.80575813       1.68744455        4
S        4.83738854      13.80189059       5.80161435        5
S        0.26029694       7.80575813       2.42672524        6
S        0.26029694      13.80189059       6.54089504        7
S        3.18755806       6.08005094       0.12684490        8
S        3.18755806       1.12249864       4.24101470        9
S        7.76464966       6.08005094       3.98732489       10
S        7.76464966       1.12249864       8.10149468       11
S        5.96662513      13.28260051       3.98732489       12
S        5.96662513       8.32504821       8.10149468       13
S        1.38953353      13.28260051       0.12684490       14
S        1.38953353       8.32504821       4.24101470       15
S        0.24398151       3.17897263       0.78167411       16
S        0.24398151       4.02357694       4.89584391       17
S        4.82107311       3.17897263       3.33249568       18
S        4.82107311       4.02357694       7.44666547       19
S        8.91020169      10.38152220       3.33249568       20
S        8.91020169      11.22612652       7.44666547       21
S        4.33311009      10.38152220       0.78167411       22
S        4.33311009      11.22612652       4.89584391       23
N        3.72409216       4.55442806       0.23066242       24
N        3.72409216       2.64812151       4.34483222       25
N        8.30118375       4.55442806       3.88350737       26
N        8.30118375       2.64812151       7.99767716       27
N        5.43009104      11.75697763       3.88350737       28
N        5.43009104       9.85067108       7.99767716       29
N        0.85299944      11.75697763       0.23066242       30
N        0.85299944       9.85067108       4.34483222       31
N        0.48197955       2.04426608       1.86576973       32
N        0.48197955       5.15828349       5.97993952       33
N        5.05907115       2.04426608       2.24840006       34
N        5.05907115       5.15828349       6.36256986       35
N        8.67220365       9.24681566       2.24840006       36
N        8.67220365      12.36083306       6.36256986       37
N        4.09511205       9.24681566       1.86576973       38
N        4.09511205      12.36083306       5.97993952       39
Cl       2.14174205       5.81947558       3.08210822       40
Cl       2.14174205       1.38307399       7.19627801       41
Cl       6.71883365       5.81947558       1.03206157       42
Cl       6.71883365       1.38307399       5.14623137       43
Cl       7.01244115      13.02202516       1.03206157       44
Cl       7.01244115       8.58562356       5.14623137       45
Cl       2.43534955      13.02202516       3.08210822       46
Cl       2.43534955       8.58562356       7.19627801       47
