22
Lattice="8.621080732409718 0.0 0.0 4.767938245105307 7.182603837438635 0.0 -0.6151757794337573 1.1467429321959388 7.921425540220257" Properties=species:S:1:pos:R:3:spacegroup_kinds:I:1 spacegroup="P 1" unit_cell=conventional occupancy="_JSON {\"0\": {\"S\": 1.0}, \"1\": {\"S\": 1.0}, \"2\": {\"S\": 1.0}, \"3\": {\"S\": 1.0}, \"4\": {\"S\": 1.0}, \"5\": {\"S\": 1.0}, \"6\": {\"S\": 1.0}, \"7\": {\"S\": 1.0}, \"8\": {\"S\": 1.0}, \"9\": {\"S\": 1.0}, \"10\": {\"N\": 1.0}, \"11\": {\"N\": 1.0}, \"12\": {\"N\": 1.0}, \"13\": {\"N\": 1.0}, \"14\": {\"N\": 1.0}, \"15\": {\"N\": 1.0}, \"16\": {\"N\": 1.0}, \"17\": {\"N\": 1.0}, \"18\": {\"N\": 1.0}, \"19\": {\"N\": 1.0}, \"20\": {\"Cl\": 1.0}, \"21\": {\"Cl\": 1.0}}" pbc="T T T"
S        6.80876595       7.34283351       6.02151519        0
S        3.81334021       4.99754444       2.06080242        1
S        8.96050299       3.33180233       5.86062312        2
S        5.96507725       0.98651326       1.89991035        3
S        6.11827915       2.72414978       5.87685625        4
S        8.04324770       3.01842997       1.91614348        5
S        4.73059550       5.31091680       6.00528206        6
S        6.65556404       5.60519699       2.04456929        7
S        9.70924527       6.31613919       5.94106916        8
S        3.06459792       2.01320758       1.98035639        9
N        6.18457789       5.91199211       6.20736079       10
N        5.35064829       4.72624808       2.24664802       11
N        7.42319490       3.60309869       5.67477752       12
N        6.58926531       2.41735466       1.71406475       13
N        8.39472146       7.21552576       5.97683601       14
N        3.04228412       3.60580645       2.01612324       15
N        9.73155908       4.72354032       5.90530230       16
N        4.37912174       1.11382101       1.94458953       17
N        4.86226369       3.71595253       5.94106916       18
N        7.91157951       4.61339424       1.98035639       19
Cl       0.00000000       0.00000000       0.00000000       20
Cl       8.31349284       0.57337147       3.96071277       21
