40
Lattice="7.322326291002866 0.0 0.0 0.0 12.101902242903 0.0 -4.9493347148314575 0.0 8.33029188041074" Properties=species:S:1:pos:R:3:spacegroup_kinds:I:1 spacegroup="P 1" unit_cell=conventional occupancy="_JSON {\"0\": {\"C\": 1.0}, \"1\": {\"C\": 1.0}, \"2\": {\"C\": 1.0}, \"3\": {\"C\": 1.0}, \"4\": {\"C\": 1.0}, \"5\": {\"C\": 1.0}, \"6\": {\"C\": 1.0}, \"7\": {\"C\": 1.0}, \"8\": {\"S\": 1.0}, \"9\": {\"S\": 1.0}, \"10\": {\"S\": 1.0}, \"11\": {\"S\": 1.0}, \"12\": {\"S\": 1.0}, \"13\": {\"S\": 1.0}, \"14\": {\"S\": 1.0}, \"15\": {\"S\": 1.0}, \"16\": {\"S\": 1.0}, \"17\": {\"S\": 1.0}, \"18\": {\"S\": 1.0}, \"19\": {\"S\": 1.0}, \"20\": {\"S\": 1.0}, \"21\": {\"S\": 1.0}, \"22\": {\"S\": 1.0}, \"23\": {\"S\": 1.0}, \"24\": {\"N\": 1.0}, \"25\": {\"N\": 1.0}, \"26\": {\"N\": 1.0}, \"27\": {\"N\": 1.0}, \"28\": {\"N\": 1.0}, \"29\": {\"N\": 1.0}, \"30\": {\"N\": 1.0}, \"31\": {\"N\": 1.0}, \"32\": {\"N\": 1.0}, \"33\": {\"N\": 1.0}, \"34\": {\"N\": 1.0}, \"35\": {\"N\": 1.0}, \"36\": {\"N\": 1.0}, \"37\": {\"N\": 1.0}, \"38\": {\"N\": 1.0}, \"39\": {\"N\": 1.0}}" pbc="T T T"
C        5.27862450       5.41745312       0.48134998        0
C        2.80395714       0.63349800       4.64649592        1
C       -0.43096557      11.46840424       3.68379596        2
C       -2.90563293       6.68444912       7.84894190        3
C        2.90059238      11.80254304       3.51364075        4
C        0.42592503       6.35031033       7.67878669        5
C        1.94706655       5.75159192       0.65150520        6
C       -0.52760081       0.29935921       4.81665114        7
S        5.14749944       6.12250345       2.09098520        8
S        2.67283208      12.03034991       6.25613114        9
S       -0.29984051       0.07155233       2.07416074       10
S       -2.77450787       5.97939879       6.23930668       11
S        4.96278681       3.41574305       1.88284269       12
S        2.48811945       2.63520807       6.04798863       13
S       -0.11512787       9.46669417       2.28230325       14
S       -2.58979523       8.68615919       6.44744919       15
S        1.98603866       4.98090398       3.03241056       16
S       -0.48862869       1.07004714       7.19755650       17
S        2.86162027      11.03185510       1.13273538       18
S        0.38695291       7.12099826       5.29788132       19
S        1.98606687       3.39960851       1.54587091       20
S       -0.48860049       2.65134261       5.71101685       21
S        2.86159207       9.45055964       2.61927503       22
S        0.38692471       8.70229373       6.78442097       23
N        4.99615313       4.68759173       2.91202479       24
N        2.52148577       1.36335939       7.07717073       25
N       -0.14849419      10.73854286       1.25312115       26
N       -2.62316155       7.41431051       5.41826709       27
N        5.18848992       4.12108789       0.39805597       28
N        2.71382256       1.92986323       4.56320191       29
N       -0.34083098      10.17203902       3.76708997       30
N       -2.81549834       7.98081435       7.93223591       31
N        2.98686207      10.50907129       3.85693310       32
N        0.51219471       7.64378207       8.02207904       33
N        1.86079687       4.45812017       0.30821284       34
N       -0.61387049       1.59283095       4.47335878       35
N        2.82158732       0.13402084       2.25310586       36
N        0.34691996       5.91693028       6.41825180       37
N        2.02607161       6.18497197       1.91204008       38
N       -0.44859574      11.96788140       6.07718602       39
