18
Lattice="6.320276842229709 0.0 0.0 0.2024568020841562 6.317033370634905 0.0 -3.2613668221569325 -3.158516685317453 4.396948733193325" Properties=species:S:1:pos:R:3:spacegroup_kinds:I:1 spacegroup="P 1" unit_cell=conventional occupancy="_JSON {\"0\": {\"Mn\": 1.0}, \"1\": {\"Mn\": 1.0}, \"2\": {\"Co\": 1.0}, \"3\": {\"Co\": 1.0}, \"4\": {\"Co\": 1.0}, \"5\": {\"Co\": 1.0}, \"6\": {\"Co\": 1.0}, \"7\": {\"Co\": 1.0}, \"8\": {\"Co\": 1.0}, \"9\": {\"Co\": 1.0}, \"10\": {\"O\": 1.0}, \"11\": {\"O\": 1.0}, \"12\": {\"O\": 1.0}, \"13\": {\"O\": 1.0}, \"14\": {\"O\": 1.0}, \"15\": {\"O\": 1.0}, \"16\": {\"O\": 1.0}, \"17\": {\"O\": 1.0}}" pbc="T T T"
Mn      -0.00000000       0.00000000       0.00000000        0
Mn       3.16013842      -0.00000000       2.19847437        1
Co      -0.96645139       0.78014140       3.16418988        2
Co       5.67272244       4.14946230       0.96571551        3
Co       4.01014963       2.16757107       1.23275885        4
Co       1.06767979       2.37837528       3.43123322        5
Co       0.96645139      -0.78014140       3.16418988        6
Co       0.85001121       2.16757107       0.96571551        7
Co       2.51258402       4.14946230       1.23275885        8
Co      -1.06767979      -2.37837528       3.43123322        9
O        2.49540697       1.15123714       0.90904486       10
O        2.13201376       3.85978447       3.10751923       11
O       -2.03078535      -0.70126779       3.48790387       12
O        0.86718825       5.16579623       1.28942950       13
O        4.02732668       5.16579623       0.90904486       14
O       -1.92955695       2.45724890       3.10751923       15
O        2.03078535       0.70126779       3.48790387       16
O       -0.66473145       1.15123714       1.28942950       17
