14
Lattice="6.63709754490654 0.0 0.0 3.318548772453271 5.747895081284392 0.0 3.318548772453271 1.9159650270947979 5.419167452699994" Properties=species:S:1:pos:R:3:spacegroup_kinds:I:1 spacegroup="P 1" unit_cell=conventional occupancy="_JSON {\"0\": {\"Co\": 1.0}, \"1\": {\"Co\": 1.0}, \"2\": {\"Ni\": 1.0}, \"3\": {\"Ni\": 1.0}, \"4\": {\"Ni\": 1.0}, \"5\": {\"Ni\": 1.0}, \"6\": {\"S\": 1.0}, \"7\": {\"S\": 1.0}, \"8\": {\"S\": 1.0}, \"9\": {\"S\": 1.0}, \"10\": {\"S\": 1.0}, \"11\": {\"S\": 1.0}, \"12\": {\"S\": 1.0}, \"13\": {\"S\": 1.0}}" pbc="T T T"
Co       9.95564632       5.74789508       4.06437559        0
Co       6.63709754       3.83193005       2.70958373        1
Ni       3.31854877       1.91596503       3.38697966        2
Ni       3.31854877       3.83193005       0.67739593        3
Ni       4.97782316       0.95798251       0.67739593        4
Ni       1.65927439       0.95798251       0.67739593        5
S        6.63709754       3.83193005       4.84160689        6
S        6.63709754       5.84202077       1.99890934        7
S        8.37788717       2.82688470       1.99890934        8
S        4.89630792       2.82688470       1.99890934        9
S        9.95564632       5.74789508       1.93235243       10
S        9.95564632       3.73780437       4.77504998       11
S        8.21485670       6.75294044       4.77504998       12
S       11.69643594       6.75294044       4.77504998       13
