12
Lattice="6.2644372443 0.0 0.0 0.0 3.748878459 0.0 0.0 0.0 6.9924881523" Properties=species:S:1:pos:R:3:spacegroup_kinds:I:1 spacegroup="P 1" unit_cell=conventional occupancy="_JSON {\"0\": {\"Sc\": 1.0}, \"1\": {\"Sc\": 1.0}, \"2\": {\"Sc\": 1.0}, \"3\": {\"Sc\": 1.0}, \"4\": {\"Co\": 1.0}, \"5\": {\"Co\": 1.0}, \"6\": {\"Co\": 1.0}, \"7\": {\"Co\": 1.0}, \"8\": {\"P\": 1.0}, \"9\": {\"P\": 1.0}, \"10\": {\"P\": 1.0}, \"11\": {\"P\": 1.0}}" pbc="T T T"
Sc       6.15725904       2.81165884       4.78812596        0
Sc       3.02504042       2.81165884       5.70060627        1
Sc       0.10717821       0.93721961       2.20436219        2
Sc       3.23939683       0.93721961       1.29188189        3
Co       5.34588503       2.81165884       0.42775126        4
Co       2.21366640       2.81165884       3.06849282        5
Co       0.91855222       0.93721961       6.56473690        6
Co       4.05077084       0.93721961       3.92399533        7
P        4.51143572       2.81165884       2.69384175        8
P        1.37921709       2.81165884       0.80240232        9
P        1.75300153       0.93721961       4.29864640       10
P        4.88522015       0.93721961       6.19008583       11
