24
Lattice="7.339707907081004 0.0 0.0 3.669853953540501 6.356373503889664 0.0 3.669853953540501 2.118791167963221 5.992846411139835" Properties=species:S:1:pos:R:3:spacegroup_kinds:I:1 spacegroup="P 1" unit_cell=conventional occupancy="_JSON {\"0\": {\"Cr\": 1.0}, \"1\": {\"Cr\": 1.0}, \"2\": {\"Cr\": 1.0}, \"3\": {\"Cr\": 1.0}, \"4\": {\"Cr\": 1.0}, \"5\": {\"Cr\": 1.0}, \"6\": {\"Cr\": 1.0}, \"7\": {\"Cr\": 1.0}, \"8\": {\"Cr\": 1.0}, \"9\": {\"Cr\": 1.0}, \"10\": {\"Cr\": 1.0}, \"11\": {\"Cr\": 1.0}, \"12\": {\"Si\": 1.0}, \"13\": {\"Si\": 1.0}, \"14\": {\"Si\": 1.0}, \"15\": {\"Si\": 1.0}, \"16\": {\"Ni\": 1.0}, \"17\": {\"Ni\": 1.0}, \"18\": {\"Ni\": 1.0}, \"19\": {\"Ni\": 1.0}, \"20\": {\"Ni\": 1.0}, \"21\": {\"Ni\": 1.0}, \"22\": {\"Ni\": 1.0}, \"23\": {\"Ni\": 1.0}}" pbc="T T T"
Cr       9.75272041       5.63073576       5.52084155        0
Cr      12.26640331       5.63073576       5.52084155        1
Cr      11.00956186       7.80764900       5.52084155        2
Cr      12.26640331       7.08201125       3.46842806        3
Cr       9.75272041       7.08201125       3.46842806        4
Cr      11.00956186       4.90509801       3.46842806        5
Cr       8.59654936       4.96322008       1.97021646        6
Cr       6.08286646       4.96322008       1.97021646        7
Cr       7.33970791       2.78630684       1.97021646        8
Cr       6.08286646       3.51194459       4.02262995        9
Cr       8.59654936       3.51194459       4.02262995       10
Cr       7.33970791       5.68885783       4.02262995       11
Si       3.66985395       2.11879117       3.74552901       12
Si       3.66985395       4.23758234       0.74910580       13
Si       5.50478093       1.05939558       0.74910580       14
Si       1.83492698       1.05939558       0.74910580       15
Ni      11.00956186       6.35637350       1.52312919       16
Ni      11.00956186       3.55481114       5.48513668       17
Ni       8.58333768       7.75715468       5.48513668       18
Ni      13.43578604       7.75715468       5.48513668       19
Ni       7.33970791       4.23758234       5.96792882       20
Ni       7.33970791       7.03914470       2.00592133       21
Ni       9.76593208       2.83680115       2.00592133       22
Ni       4.91348373       2.83680115       2.00592133       23
