14
Lattice="6.94409905110828 0.0 0.0 2.2080953654806357 5.079569270239353 0.0 4.736003685627644 0.9620753518462115 4.987628192691386" Properties=species:S:1:pos:R:3:spacegroup_kinds:I:1 spacegroup="P 1" unit_cell=conventional occupancy="_JSON {\"0\": {\"Cr\": 1.0}, \"1\": {\"Cr\": 1.0}, \"2\": {\"Cu\": 1.0}, \"3\": {\"Cu\": 1.0}, \"4\": {\"Cu\": 1.0}, \"5\": {\"Cu\": 1.0}, \"6\": {\"O\": 1.0}, \"7\": {\"O\": 1.0}, \"8\": {\"O\": 1.0}, \"9\": {\"O\": 1.0}, \"10\": {\"O\": 1.0}, \"11\": {\"O\": 1.0}, \"12\": {\"O\": 1.0}, \"13\": {\"O\": 1.0}}" pbc="T T T"
Cr       0.00000000       0.00000000       0.00000000        0
Cr       3.47204953       1.51041116       1.24690705        1
Cu       6.31212197       3.29499021       0.62345352        2
Cu       7.57607613       1.23624325       3.11726762        3
Cu       8.68012381       3.77602789       3.11726762        4
Cu       5.20807429       3.77602789       3.11726762        5
O        9.06077052       2.10024934       2.09657464        6
O        4.82742759       2.45641555       1.66514119        7
O       11.44722868       2.59849500       4.56954425        8
O        9.38506848       4.97899219       1.68598568        9
O        7.97517915       2.57306359       4.54854956       10
O        5.91301895       4.95356077       1.66499099       11
O       12.53282004       5.09564023       4.56939405       12
O        8.29947711       5.45180644       4.13796060       13
