48
Lattice="9.3474870069427 0.0 0.0 0.0 10.026623339574 0.0 0.0 0.0 8.2058782978326" Properties=species:S:1:pos:R:3:spacegroup_kinds:I:1 spacegroup="P 1" unit_cell=conventional occupancy="_JSON {\"0\": {\"Sc\": 1.0}, \"1\": {\"Sc\": 1.0}, \"2\": {\"Sc\": 1.0}, \"3\": {\"Sc\": 1.0}, \"4\": {\"Sc\": 1.0}, \"5\": {\"Sc\": 1.0}, \"6\": {\"Sc\": 1.0}, \"7\": {\"Sc\": 1.0}, \"8\": {\"Sc\": 1.0}, \"9\": {\"Sc\": 1.0}, \"10\": {\"Sc\": 1.0}, \"11\": {\"Sc\": 1.0}, \"12\": {\"Cr\": 1.0}, \"13\": {\"Cr\": 1.0}, \"14\": {\"Cr\": 1.0}, \"15\": {\"Cr\": 1.0}, \"16\": {\"Cr\": 1.0}, \"17\": {\"Cr\": 1.0}, \"18\": {\"Cr\": 1.0}, \"19\": {\"Cr\": 1.0}, \"20\": {\"Cr\": 1.0}, \"21\": {\"Cr\": 1.0}, \"22\": {\"Cr\": 1.0}, \"23\": {\"Cr\": 1.0}, \"24\": {\"Ge\": 1.0}, \"25\": {\"Ge\": 1.0}, \"26\": {\"Ge\": 1.0}, \"27\": {\"Ge\": 1.0}, \"28\": {\"Ge\": 1.0}, \"29\": {\"Ge\": 1.0}, \"30\": {\"Ge\": 1.0}, \"31\": {\"Ge\": 1.0}, \"32\": {\"Ge\": 1.0}, \"33\": {\"Ge\": 1.0}, \"34\": {\"Ge\": 1.0}, \"35\": {\"Ge\": 1.0}, \"36\": {\"Ge\": 1.0}, \"37\": {\"Ge\": 1.0}, \"38\": {\"Ge\": 1.0}, \"39\": {\"Ge\": 1.0}, \"40\": {\"Ge\": 1.0}, \"41\": {\"Ge\": 1.0}, \"42\": {\"Ge\": 1.0}, \"43\": {\"Ge\": 1.0}, \"44\": {\"Ge\": 1.0}, \"45\": {\"Ge\": 1.0}, \"46\": {\"Ge\": 1.0}, \"47\": {\"Ge\": 1.0}}" pbc="T T T"
Sc       1.58838226       5.48620313       6.20193908        0
Sc       1.58838226       5.48620313       2.00393922        1
Sc       6.26212576       9.55373188       6.20193908        2
Sc       6.26212576       9.55373188       2.00393922        3
Sc       7.75910475       4.54042021       6.20193908        4
Sc       7.75910475       4.54042021       2.00393922        5
Sc       3.08536124       0.47289146       6.20193908        6
Sc       3.08536124       0.47289146       2.00393922        7
Sc       1.54265132       8.21527714       0.00000000        8
Sc       6.21639482       6.82465787       0.00000000        9
Sc       7.80483569       1.81134620       0.00000000       10
Sc       3.13109218       3.20196547       0.00000000       11
Cr       3.95149852       7.44994337       6.15715880       12
Cr       3.95149852       7.44994337       2.04871950       13
Cr       8.62524203       7.58999164       6.15715880       14
Cr       8.62524203       7.58999164       2.04871950       15
Cr       5.39598848       2.57667997       6.15715880       16
Cr       5.39598848       2.57667997       2.04871950       17
Cr       0.72224498       2.43663170       6.15715880       18
Cr       0.72224498       2.43663170       2.04871950       19
Cr       4.67374350       5.01331167       6.19143857       20
Cr       4.67374350       5.01331167       2.01443972       21
Cr       0.00000000       0.00000000       6.19143857       22
Cr       0.00000000       0.00000000       2.01443972       23
Ge       1.62571129       8.19867577       5.43002862       24
Ge       1.62571129       8.19867577       2.77584967       25
Ge       6.29945479       6.84125924       5.43002862       26
Ge       6.29945479       6.84125924       2.77584967       27
Ge       7.72177572       1.82794757       5.43002862       28
Ge       7.72177572       1.82794757       2.77584967       29
Ge       3.04803221       3.18536410       5.43002862       30
Ge       3.04803221       3.18536410       2.77584967       31
Ge       4.32183803       8.76223176       4.10293915       32
Ge       8.99558154       6.27770325       4.10293915       33
Ge       5.02564897       1.26439158       4.10293915       34
Ge       0.35190547       3.74892009       4.10293915       35
Ge       3.54153281       5.95087620       4.10293915       36
Ge       8.21527631       9.08905881       4.10293915       37
Ge       5.80595420       4.07574714       4.10293915       38
Ge       1.13221070       0.93756453       4.10293915       39
Ge       4.27455021       8.80009730       0.00000000       40
Ge       8.94829372       6.23983771       0.00000000       41
Ge       5.07293679       1.22652604       0.00000000       42
Ge       0.39919329       3.78678563       0.00000000       43
Ge       3.46135605       6.01873182       0.00000000       44
Ge       8.13509955       9.02120319       0.00000000       45
Ge       5.88613096       4.00789152       0.00000000       46
Ge       1.21238745       1.00542015       0.00000000       47
