17
Lattice="5.786339676049623 0.0 0.0 -2.2257624047173272 5.341133640377575 0.0 -3.6488429417068122 2.432440024845386 6.660909827698604" Properties=species:S:1:pos:R:3:spacegroup_kinds:I:1 spacegroup="P 1" unit_cell=conventional occupancy="_JSON {\"0\": {\"Cu\": 1.0}, \"1\": {\"Cu\": 1.0}, \"2\": {\"Na\": 1.0}, \"3\": {\"O\": 1.0}, \"4\": {\"O\": 1.0}, \"5\": {\"O\": 1.0}, \"6\": {\"O\": 1.0}, \"7\": {\"O\": 1.0}, \"8\": {\"O\": 1.0}, \"9\": {\"O\": 1.0}, \"10\": {\"O\": 1.0}, \"11\": {\"O\": 1.0}, \"12\": {\"O\": 1.0}, \"13\": {\"H\": 1.0}, \"14\": {\"H\": 1.0}, \"15\": {\"Se\": 1.0}, \"16\": {\"Se\": 1.0}}" pbc="T T T"
Cu      -1.11288120       2.67056682       0.00000000        0
Cu       2.89316984       0.00000000       0.00000000        1
Na      -0.04413284       3.88678683       3.33045491        2
O        1.35970559       2.95094146       5.39630273        3
O       -1.44797126       4.82263220       1.26460709        4
O        2.34675659       2.29294045       2.98649373        5
O       -2.43502226       5.48063322       3.67441610        6
O       -1.67842033       2.79009318       4.98999042        7
O        0.33953833       5.81718291       4.98999042        8
O        1.59015466       4.98348049       1.67091940        9
O       -0.42780400       1.95639076       1.67091940       10
O       -3.08640452       5.91486629       6.34162022       11
O        2.99813885       1.85870738       0.31928960       12
H       -2.87819514       5.77606700       5.37925830       13
H        2.78992947       1.99750667       1.28165152       14
Se       2.57399017       2.14145899       4.60248178       15
Se      -2.66225584       5.63211468       2.05842805       16
