25
Lattice="5.257717166339592 0.0 0.0 -0.5216295036754374 8.948091119126522 0.0 -1.5055396988385892 -1.5676409429529066 6.095360888107161" Properties=species:S:1:pos:R:3:spacegroup_kinds:I:1 spacegroup="P 1" unit_cell=conventional occupancy="_JSON {\"0\": {\"Na\": 1.0}, \"1\": {\"Na\": 1.0}, \"2\": {\"O\": 1.0}, \"3\": {\"O\": 1.0}, \"4\": {\"O\": 1.0}, \"5\": {\"O\": 1.0}, \"6\": {\"O\": 1.0}, \"7\": {\"O\": 1.0}, \"8\": {\"O\": 1.0}, \"9\": {\"O\": 1.0}, \"10\": {\"O\": 1.0}, \"11\": {\"O\": 1.0}, \"12\": {\"O\": 1.0}, \"13\": {\"O\": 1.0}, \"14\": {\"O\": 1.0}, \"15\": {\"Cu\": 1.0}, \"16\": {\"Cu\": 1.0}, \"17\": {\"H\": 1.0}, \"18\": {\"H\": 1.0}, \"19\": {\"H\": 1.0}, \"20\": {\"H\": 1.0}, \"21\": {\"Si\": 1.0}, \"22\": {\"Si\": 1.0}, \"23\": {\"Si\": 1.0}, \"24\": {\"Si\": 1.0}}" pbc="T T T"
Na      -0.39827309       1.66341050       3.85285615        0
Na       3.62882105       5.71703968       2.24250474        1
O       -0.27271067       6.29918098       0.47030072        2
O        3.50325863       1.08126919       5.62506017        3
O        0.48089116       4.58267059       2.55282500        4
O        2.74965680       2.79777959       3.54253589        5
O        1.06504828       1.69226114       1.71861228        6
O        2.16549969       5.68818903       4.37674861        7
O        0.89187651      -0.28819606       4.17371125        8
O        2.33867145       7.66864624       1.92164964        9
O        3.70438382       1.39469790       1.55402878       10
O       -0.47383585       5.98575228       4.54133211       11
O        0.00000000       0.00000000       0.00000000       12
O        2.65554828       3.79446316       0.97832530       13
O        0.57499968       3.58598702       5.11703559       14
Cu       1.10620650       5.00541267       0.77524283       15
Cu       2.12434146       2.37503750       5.32011806       16
H        0.07833320       7.74909805       4.40451238       17
H        3.15221477      -0.36864788       1.69084851       18
H        1.86332441      -0.33592905       4.15946076       19
H        1.36722356       7.71637923       1.93590013       20
Si      -0.16863786       1.49011364       0.63799277       21
Si       3.39918582       5.89033653       5.45736812       22
Si       2.49370242       2.48016811       1.98696326       23
Si       0.73684554       4.90028207       4.10839762       24
