19
Lattice="8.622843367655076 0.0 0.0 -0.9807085213878922 6.29416392700551 0.0 -0.556708620002118 -1.128697877182357 5.098528273195767" Properties=species:S:1:pos:R:3:spacegroup_kinds:I:1 spacegroup="P 1" unit_cell=conventional occupancy="_JSON {\"0\": {\"O\": 1.0}, \"1\": {\"O\": 1.0}, \"2\": {\"O\": 1.0}, \"3\": {\"O\": 1.0}, \"4\": {\"O\": 1.0}, \"5\": {\"O\": 1.0}, \"6\": {\"O\": 1.0}, \"7\": {\"O\": 1.0}, \"8\": {\"O\": 1.0}, \"9\": {\"O\": 1.0}, \"10\": {\"O\": 1.0}, \"11\": {\"Si\": 1.0}, \"12\": {\"Si\": 1.0}, \"13\": {\"Si\": 1.0}, \"14\": {\"Si\": 1.0}, \"15\": {\"Cu\": 1.0}, \"16\": {\"Cu\": 1.0}, \"17\": {\"Na\": 1.0}, \"18\": {\"Na\": 1.0}}" pbc="T T T"
O        1.13193565       4.88996611       5.03661822        0
O        5.95349058       0.27549994       0.06191006        1
O        4.56375100       2.33887489       1.40970110        2
O        2.52167522       2.82659116       3.68882717        3
O        1.48146594       1.62040614       1.48335509        4
O        5.60396028       3.54505991       3.61517319        5
O        0.89369249       0.77568116       3.97071242        6
O        6.19173374       4.38978489       1.12781585        7
O        0.00000000       0.00000000       0.00000000        8
O        3.35713638       0.34863709       3.00158663        9
O        3.72828984       4.81682896       2.09694165       10
Si       1.43468694       0.75515937       0.05693126       11
Si       5.65073929       4.41030668       5.04159702       12
Si       2.08858843       1.43038609       3.01602764       13
Si       4.99683779       3.73507996       2.08250064       14
Cu       4.69256929       0.42356944       1.52021809       15
Cu       2.39285693       4.74189661       3.57831018       16
Na       2.03462744       3.85390678       0.66547262       17
Na       5.05079879       1.31155927       4.43305565       18
