28
Lattice="5.13763091635082 0.0 0.0 2.292946599793917 9.092502322432225 0.0 2.3992866955933096 3.5644308373589864 7.505177163137792" Properties=species:S:1:pos:R:3:spacegroup_kinds:I:1 spacegroup="P 1" unit_cell=conventional occupancy="_JSON {\"0\": {\"P\": 1.0}, \"1\": {\"P\": 1.0}, \"2\": {\"P\": 1.0}, \"3\": {\"P\": 1.0}, \"4\": {\"Cu\": 1.0}, \"5\": {\"Cu\": 1.0}, \"6\": {\"Cu\": 1.0}, \"7\": {\"O\": 1.0}, \"8\": {\"O\": 1.0}, \"9\": {\"O\": 1.0}, \"10\": {\"O\": 1.0}, \"11\": {\"O\": 1.0}, \"12\": {\"O\": 1.0}, \"13\": {\"O\": 1.0}, \"14\": {\"O\": 1.0}, \"15\": {\"O\": 1.0}, \"16\": {\"O\": 1.0}, \"17\": {\"O\": 1.0}, \"18\": {\"O\": 1.0}, \"19\": {\"O\": 1.0}, \"20\": {\"O\": 1.0}, \"21\": {\"O\": 1.0}, \"22\": {\"O\": 1.0}, \"23\": {\"Na\": 1.0}, \"24\": {\"Na\": 1.0}, \"25\": {\"Na\": 1.0}, \"26\": {\"Na\": 1.0}, \"27\": {\"Na\": 1.0}}" pbc="T T T"
P        2.23245552       6.02813272       1.89739785        0
P        7.59740869       6.62880044       5.60777931        1
P        7.63710568      11.41049119       5.32506831        2
P        2.19275853       1.24644197       2.18010885        3
Cu       4.91493211       6.32846658       3.75258858        4
Cu       2.47380413       3.85906320       4.09370143        5
Cu       7.35606008       8.79786996       3.41147573        6
O        1.79295579       2.50037733       5.26445007        7
O        8.03690843      10.15655583       2.24072710        8
O        2.46080283       7.56373574       1.92442974        9
O        7.36906138       5.09319742       5.58074742       10
O        3.93492887       7.03722190       5.25436521       11
O        5.89493534       5.61971126       2.25081195       12
O        2.54300498       5.50961347       0.48312439       13
O        7.28685924       7.14731969       7.02205277       14
O        3.19930912       5.35357244       2.99625372       15
O        6.63055509       7.30336072       4.50892344       16
O        5.13548584       9.36692457       3.15620865       17
O        4.69437837       3.29000859       4.34896851       18
O        7.16959735      11.49333855       6.77866003       19
O        2.66026686       1.16359461       0.72651713       20
O        7.38648140       9.85133939       5.00710892       21
O        2.44338281       2.80559377       2.49806824       22
Na       4.95405182       9.38130647       5.41042722       23
Na       4.87581239       3.27562669       2.09474995       24
Na       4.89056790       5.85629324       0.10834532       25
Na       4.93929631       6.80063992       7.39683184       26
Na       0.00000000       0.00000000       0.00000000       27
