10
Lattice="3.1541630730563 0.0 0.0 0.0 3.1541630730563 0.0 0.0 0.0 13.960393380532" Properties=species:S:1:pos:R:3:spacegroup_kinds:I:1 spacegroup="P 1" unit_cell=conventional occupancy="_JSON {\"0\": {\"Ti\": 1.0}, \"1\": {\"Ti\": 1.0}, \"2\": {\"Ti\": 1.0}, \"3\": {\"Ti\": 1.0}, \"4\": {\"Cu\": 1.0}, \"5\": {\"Cu\": 1.0}, \"6\": {\"Cu\": 1.0}, \"7\": {\"Cu\": 1.0}, \"8\": {\"Cu\": 1.0}, \"9\": {\"Cu\": 1.0}}" pbc="T T T"
Ti       1.57708154       0.00000000       0.84348199        0
Ti       0.00000000       1.57708154      13.11691139        1
Ti       1.57708154       0.00000000       9.01572711        2
Ti       0.00000000       1.57708154       4.94466628        3
Cu       1.57708154       0.00000000       3.57056035        4
Cu       0.00000000       1.57708154      10.38983303        5
Cu       1.57708154       0.00000000       6.35225418        6
Cu       0.00000000       1.57708154       7.60813920        7
Cu       1.57708154       0.00000000      11.67948831        8
Cu       0.00000000       1.57708154       2.28090507        9
