14
Lattice="6.461211662513842 0.0 0.0 1.0135651393156813 6.381217897562256 0.0 -3.737388400914762 -3.190608948781129 4.195139881394953" Properties=species:S:1:pos:R:3:spacegroup_kinds:I:1 spacegroup="P 1" unit_cell=conventional occupancy="_JSON {\"0\": {\"Cu\": 1.0}, \"1\": {\"Cu\": 1.0}, \"2\": {\"Cu\": 1.0}, \"3\": {\"Cu\": 1.0}, \"4\": {\"Cu\": 1.0}, \"5\": {\"Cu\": 1.0}, \"6\": {\"Cu\": 1.0}, \"7\": {\"Cu\": 1.0}, \"8\": {\"O\": 1.0}, \"9\": {\"O\": 1.0}, \"10\": {\"O\": 1.0}, \"11\": {\"O\": 1.0}, \"12\": {\"O\": 1.0}, \"13\": {\"O\": 1.0}}" pbc="T T T"
Cu      -0.25339128      -1.59530447       3.14635491        0
Cu       5.35269132       3.19060895       1.04878497        1
Cu       0.25339128       1.59530447       3.14635491        2
Cu       2.12208549       3.19060895       1.04878497        3
Cu       3.48399712       1.59530447       3.14635491        4
Cu       1.61530292       0.00000000       1.04878497        5
Cu       2.97721455      -1.59530447       3.14635491        6
Cu       4.84590875       0.00000000       1.04878497        7
O        1.96645063       1.67875915       0.00000000        8
O       -1.26415520       1.67875915       2.09756994        9
O        2.27772034       4.70245875       2.09756994       10
O        1.77093777       1.51184980       4.19513988       11
O       -0.00000000       0.00000000       0.00000000       12
O        3.23060583       0.00000000       2.09756994       13
