24
Lattice="6.0016015784674 0.0 0.0 0.0 9.9334026630817 0.0 0.0 0.0 6.2640123501204" Properties=species:S:1:pos:R:3:spacegroup_kinds:I:1 spacegroup="P 1" unit_cell=conventional occupancy="_JSON {\"0\": {\"Fe\": 1.0}, \"1\": {\"Fe\": 1.0}, \"2\": {\"Fe\": 1.0}, \"3\": {\"Fe\": 1.0}, \"4\": {\"Fe\": 1.0}, \"5\": {\"Fe\": 1.0}, \"6\": {\"Fe\": 1.0}, \"7\": {\"Fe\": 1.0}, \"8\": {\"Cu\": 1.0}, \"9\": {\"Cu\": 1.0}, \"10\": {\"Cu\": 1.0}, \"11\": {\"Cu\": 1.0}, \"12\": {\"S\": 1.0}, \"13\": {\"S\": 1.0}, \"14\": {\"S\": 1.0}, \"15\": {\"S\": 1.0}, \"16\": {\"S\": 1.0}, \"17\": {\"S\": 1.0}, \"18\": {\"S\": 1.0}, \"19\": {\"S\": 1.0}, \"20\": {\"S\": 1.0}, \"21\": {\"S\": 1.0}, \"22\": {\"S\": 1.0}, \"23\": {\"S\": 1.0}}" pbc="T T T"
Fe       2.18868062       4.00126976       0.30400119        0
Fe       2.18868062       0.96543157       0.30400119        1
Fe       5.18948141       4.00126976       2.82800499        2
Fe       5.18948141       0.96543157       2.82800499        3
Fe       3.81292096       8.96797109       5.96001116        4
Fe       3.81292096       5.93213290       5.96001116        5
Fe       0.81212017       8.96797109       3.43600736        6
Fe       0.81212017       5.93213290       3.43600736        7
Cu       1.57540257       2.48335067       3.49518496        8
Cu       4.57620336       2.48335067       5.90083357        9
Cu       4.42619900       7.45005200       2.76882739       10
Cu       1.42539822       7.45005200       0.36317878       11
S        1.79107297       9.24629996       5.28539734       12
S        1.79107297       5.65380404       5.28539734       13
S        4.79187376       9.24629996       4.11062119       14
S        4.79187376       5.65380404       4.11062119       15
S        4.21052861       4.27959863       0.97861501       16
S        4.21052861       0.68710270       0.97861501       17
S        1.20972782       4.27959863       2.15339116       18
S        1.20972782       0.68710270       2.15339116       19
S        0.90288708       2.48335067       5.67456431       20
S        3.90368786       2.48335067       3.72145422       21
S        5.09871450       7.45005200       0.58944804       22
S        2.09791371       7.45005200       2.54255813       23
