30
Lattice="9.112173224408554 0.0 0.0 -3.361105973689157 8.469632076144704 0.0 -3.3611059737789195 -4.949921419068532 6.872622894347372" Properties=species:S:1:pos:R:3:spacegroup_kinds:I:1 spacegroup="P 1" unit_cell=conventional occupancy="_JSON {\"0\": {\"O\": 1.0}, \"1\": {\"O\": 1.0}, \"2\": {\"O\": 1.0}, \"3\": {\"O\": 1.0}, \"4\": {\"O\": 1.0}, \"5\": {\"O\": 1.0}, \"6\": {\"O\": 1.0}, \"7\": {\"O\": 1.0}, \"8\": {\"O\": 1.0}, \"9\": {\"O\": 1.0}, \"10\": {\"O\": 1.0}, \"11\": {\"O\": 1.0}, \"12\": {\"O\": 1.0}, \"13\": {\"O\": 1.0}, \"14\": {\"O\": 1.0}, \"15\": {\"O\": 1.0}, \"16\": {\"O\": 1.0}, \"17\": {\"O\": 1.0}, \"18\": {\"Cu\": 1.0}, \"19\": {\"Cu\": 1.0}, \"20\": {\"Cu\": 1.0}, \"21\": {\"Cu\": 1.0}, \"22\": {\"Cu\": 1.0}, \"23\": {\"Cu\": 1.0}, \"24\": {\"Ge\": 1.0}, \"25\": {\"Ge\": 1.0}, \"26\": {\"Ge\": 1.0}, \"27\": {\"Ge\": 1.0}, \"28\": {\"Ge\": 1.0}, \"29\": {\"Ge\": 1.0}}" pbc="T T T"
O        7.97972738      -1.16179797       1.93631697        0
O        3.24182440      -4.72733660       6.68371061        1
O        6.41322882       6.03280128       0.07020855        2
O       -5.58976611       4.68150863       4.93630592        3
O       -0.85186313       8.24704726       0.18891228        4
O       -4.02326754      -2.51309062       6.80241434        5
O        5.99421105       0.92393258       2.59015732        6
O        3.14931885      -2.62790091       4.60913432        7
O        3.74219737       4.87330033       0.56133261        8
O       -3.60424977       2.59577808       4.28246557        9
O       -0.75935757       6.14761157       2.26348857       10
O       -1.35223609      -1.35358968       6.31129028       11
O       -3.32370147       4.76361334       2.61804803       12
O        1.77708246       6.85234572       1.47715238       13
O       -3.26372462       0.61671615       6.42358202       14
O        5.71366274      -1.24390269       4.25457486       15
O        0.61287882      -3.33263507       5.39547052       16
O        5.65368589       2.90299451       0.44904088       17
Cu       5.75316224       2.84610546       2.36518614       18
Cu       4.27424876      -1.92214569       3.18088105       19
Cu       1.86665273       5.33927712       0.29929621       20
Cu      -3.36320097       0.67360520       4.50743675       21
Cu      -1.88428748       5.44185634       3.69174184       22
Cu       0.52330855      -1.81956646       6.57332668       23
Ge       6.44151648      -0.38697319       1.47816314       24
Ge       3.44089332      -2.99343177       6.32274416       25
Ge       5.12565774       5.73601006       1.26621309       26
Ge      -4.05155520       3.90668384       5.39445976       27
Ge      -1.05093204       6.51314243       0.54987874       28
Ge      -2.73569646      -2.21629940       5.60640980       29
