36
Lattice="9.117353937724864 0.0 0.0 -3.358950904263383 8.476059912984056 0.0 -3.3589509042846166 -4.944195281929432 6.884658645138422" Properties=species:S:1:pos:R:3:spacegroup_kinds:I:1 spacegroup="P 1" unit_cell=conventional occupancy="_JSON {\"0\": {\"O\": 1.0}, \"1\": {\"O\": 1.0}, \"2\": {\"O\": 1.0}, \"3\": {\"O\": 1.0}, \"4\": {\"O\": 1.0}, \"5\": {\"O\": 1.0}, \"6\": {\"O\": 1.0}, \"7\": {\"O\": 1.0}, \"8\": {\"O\": 1.0}, \"9\": {\"O\": 1.0}, \"10\": {\"O\": 1.0}, \"11\": {\"O\": 1.0}, \"12\": {\"O\": 1.0}, \"13\": {\"O\": 1.0}, \"14\": {\"O\": 1.0}, \"15\": {\"O\": 1.0}, \"16\": {\"O\": 1.0}, \"17\": {\"O\": 1.0}, \"18\": {\"O\": 1.0}, \"19\": {\"O\": 1.0}, \"20\": {\"O\": 1.0}, \"21\": {\"O\": 1.0}, \"22\": {\"O\": 1.0}, \"23\": {\"O\": 1.0}, \"24\": {\"Cu\": 1.0}, \"25\": {\"Cu\": 1.0}, \"26\": {\"Cu\": 1.0}, \"27\": {\"Cu\": 1.0}, \"28\": {\"Cu\": 1.0}, \"29\": {\"Cu\": 1.0}, \"30\": {\"Ge\": 1.0}, \"31\": {\"Ge\": 1.0}, \"32\": {\"Ge\": 1.0}, \"33\": {\"Ge\": 1.0}, \"34\": {\"Ge\": 1.0}, \"35\": {\"Ge\": 1.0}}" pbc="T T T"
O        7.97692786      -1.16638576       1.93685002        0
O        3.24319681      -4.71422830       6.70226294        1
O        6.42260017       6.03376715       0.08039634        2
O       -5.57747573       4.69825039       4.94780863        3
O       -0.84374468       8.24609293       0.18239570        4
O       -4.02314804      -2.50190252       6.80426230        5
O        1.18255112       0.74975696       4.32549021        6
O       -0.02454586       1.29924387       3.75255608        7
O        2.13809848       0.82089728       3.24422206        8
O        1.21690101       2.78210767       2.55916843        9
O        2.42399799       2.23262076       3.13210257       10
O        0.26135365       2.71096735       3.64043658       11
O        5.99070697       0.92665620       2.59440636       12
O        3.14993935      -2.61468773       4.61863368       13
O        3.74502862       4.87236754       0.57033509       14
O       -3.59125485       2.60520843       4.29025228       15
O       -0.75048722       6.14655236       2.26602496       16
O       -1.34557649      -1.34050291       6.31432356       17
O       -3.32105951       4.76949156       2.62505319       18
O        1.78013063       6.85876472       1.47942350       19
O       -3.25808540       0.62367800       6.43398149       20
O        5.72051164      -1.23762693       4.25960546       21
O        0.61932150      -3.32690009       5.40523514       22
O        5.65753753       2.90818663       0.45067716       23
Cu       5.75728275       2.85149579       2.36878080       24
Cu       4.27812603      -1.91651724       3.18679781       25
Cu       1.86958139       5.34269717       0.30221397       26
Cu      -3.35783062       0.68036884       4.51587784       27
Cu      -1.87867390       5.44838187       3.69786084       28
Cu       0.52987074      -1.81083254       6.58244467       29
Ge       6.44084829      -0.38490056       1.48226034       30
Ge       3.44434008      -2.98221936       6.33267156       31
Ge       5.13017132       5.73795627       1.27162887       32
Ge      -4.04139616       3.91676519       5.40239831       33
Ge      -1.04488795       6.51408399       0.55198709       34
Ge      -2.73071919      -2.20609164       5.61302977       35
