48
Lattice="14.612302366431 0.0 0.0 0.0 5.2879973575865 0.0 0.0 0.0 9.8502688107451" Properties=species:S:1:pos:R:3:spacegroup_kinds:I:1 spacegroup="P 1" unit_cell=conventional occupancy="_JSON {\"0\": {\"K\": 1.0}, \"1\": {\"K\": 1.0}, \"2\": {\"K\": 1.0}, \"3\": {\"K\": 1.0}, \"4\": {\"K\": 1.0}, \"5\": {\"K\": 1.0}, \"6\": {\"K\": 1.0}, \"7\": {\"K\": 1.0}, \"8\": {\"Cu\": 1.0}, \"9\": {\"Cu\": 1.0}, \"10\": {\"Cu\": 1.0}, \"11\": {\"Cu\": 1.0}, \"12\": {\"P\": 1.0}, \"13\": {\"P\": 1.0}, \"14\": {\"P\": 1.0}, \"15\": {\"P\": 1.0}, \"16\": {\"P\": 1.0}, \"17\": {\"P\": 1.0}, \"18\": {\"P\": 1.0}, \"19\": {\"P\": 1.0}, \"20\": {\"O\": 1.0}, \"21\": {\"O\": 1.0}, \"22\": {\"O\": 1.0}, \"23\": {\"O\": 1.0}, \"24\": {\"O\": 1.0}, \"25\": {\"O\": 1.0}, \"26\": {\"O\": 1.0}, \"27\": {\"O\": 1.0}, \"28\": {\"O\": 1.0}, \"29\": {\"O\": 1.0}, \"30\": {\"O\": 1.0}, \"31\": {\"O\": 1.0}, \"32\": {\"O\": 1.0}, \"33\": {\"O\": 1.0}, \"34\": {\"O\": 1.0}, \"35\": {\"O\": 1.0}, \"36\": {\"O\": 1.0}, \"37\": {\"O\": 1.0}, \"38\": {\"O\": 1.0}, \"39\": {\"O\": 1.0}, \"40\": {\"O\": 1.0}, \"41\": {\"O\": 1.0}, \"42\": {\"O\": 1.0}, \"43\": {\"O\": 1.0}, \"44\": {\"O\": 1.0}, \"45\": {\"O\": 1.0}, \"46\": {\"O\": 1.0}, \"47\": {\"O\": 1.0}}" pbc="T T T"
K        5.86159194       3.96599802       1.26238345        0
K       13.16774312       3.96599802       3.66275096        1
K        8.75071043       1.32199934       8.58788536        2
K        1.44455925       1.32199934       6.18751785        3
K        3.10819343       3.96599802       8.42706398        4
K       10.41434461       3.96599802       6.34833924        5
K       11.50410894       1.32199934       1.42320483        6
K        4.19795776       1.32199934       3.50192957        7
Cu       2.19773562       3.96599802       2.19706119        8
Cu       9.50388680       3.96599802       2.72807322        9
Cu      12.41456675       1.32199934       7.65320762       10
Cu       5.10841556       1.32199934       7.12219559       11
P        6.67540663       3.96599802       7.59290355       12
P       13.98155781       3.96599802       7.18249966       13
P        7.93689574       1.32199934       2.25736526       14
P        0.63074455       1.32199934       2.66776915       15
P        4.80157248       3.96599802       5.45032830       16
P       12.10772367       3.96599802       9.32507492       17
P        9.81072988       1.32199934       4.39994051       18
P        2.50457870       1.32199934       0.52519389       19
O        5.97375197       5.22560567       8.19440317       20
O        5.97375197       2.70639037       8.19440317       21
O       13.27990315       5.22560567       6.58100005       22
O       13.27990315       2.70639037       6.58100005       23
O        8.63855040       2.58160699       1.65586565       24
O        8.63855040       0.06239169       1.65586565       25
O        1.33239921       2.58160699       3.26926876       26
O        1.33239921       0.06239169       3.26926876       27
O        4.14300550       5.24227870       6.06989283       28
O        4.14300550       2.68971734       6.06989283       29
O       11.44915668       5.24227870       8.70551039       30
O       11.44915668       2.68971734       8.70551039       31
O       10.46929687       2.59828002       3.78037598       32
O       10.46929687       0.04571866       3.78037598       33
O        3.16314569       2.59828002       1.14475842       34
O        3.16314569       0.04571866       1.14475842       35
O        6.35744988       3.96599802       5.97768196       36
O       13.66360106       3.96599802       8.79772126       37
O        8.25485249       1.32199934       3.87258685       38
O        0.94870131       1.32199934       1.05254755       39
O        0.86852295       3.96599802       7.02086030       40
O        8.17467413       3.96599802       7.75454291       41
O       13.74377942       1.32199934       2.82940851       42
O        6.43762823       1.32199934       2.09572590       43
O       12.13190165       3.96599802       0.98559911       44
O        4.82575047       3.96599802       3.93953530       45
O        2.48040072       1.32199934       8.86466970       46
O        9.78655190       1.32199934       5.91073351       47
