48
Lattice="11.416834080798 0.0 0.0 0.0 11.416834080798 0.0 0.0 0.0 5.4906967308005" Properties=species:S:1:pos:R:3:spacegroup_kinds:I:1 spacegroup="P 1" unit_cell=conventional occupancy="_JSON {\"0\": {\"Na\": 1.0}, \"1\": {\"Na\": 1.0}, \"2\": {\"Na\": 1.0}, \"3\": {\"Na\": 1.0}, \"4\": {\"Na\": 1.0}, \"5\": {\"Na\": 1.0}, \"6\": {\"Na\": 1.0}, \"7\": {\"Na\": 1.0}, \"8\": {\"Na\": 1.0}, \"9\": {\"Na\": 1.0}, \"10\": {\"Cu\": 1.0}, \"11\": {\"Cu\": 1.0}, \"12\": {\"S\": 1.0}, \"13\": {\"S\": 1.0}, \"14\": {\"S\": 1.0}, \"15\": {\"S\": 1.0}, \"16\": {\"S\": 1.0}, \"17\": {\"S\": 1.0}, \"18\": {\"S\": 1.0}, \"19\": {\"S\": 1.0}, \"20\": {\"N\": 1.0}, \"21\": {\"N\": 1.0}, \"22\": {\"N\": 1.0}, \"23\": {\"N\": 1.0}, \"24\": {\"O\": 1.0}, \"25\": {\"O\": 1.0}, \"26\": {\"O\": 1.0}, \"27\": {\"O\": 1.0}, \"28\": {\"O\": 1.0}, \"29\": {\"O\": 1.0}, \"30\": {\"O\": 1.0}, \"31\": {\"O\": 1.0}, \"32\": {\"O\": 1.0}, \"33\": {\"O\": 1.0}, \"34\": {\"O\": 1.0}, \"35\": {\"O\": 1.0}, \"36\": {\"O\": 1.0}, \"37\": {\"O\": 1.0}, \"38\": {\"O\": 1.0}, \"39\": {\"O\": 1.0}, \"40\": {\"O\": 1.0}, \"41\": {\"O\": 1.0}, \"42\": {\"O\": 1.0}, \"43\": {\"O\": 1.0}, \"44\": {\"O\": 1.0}, \"45\": {\"O\": 1.0}, \"46\": {\"O\": 1.0}, \"47\": {\"O\": 1.0}}" pbc="T T T"
Na       8.36865120       9.20101942       1.12711187        0
Na       9.20101942       3.04818289       4.36358486        1
Na       3.04818289       2.21581466       1.12711187        2
Na       2.21581466       8.36865120       4.36358486        3
Na       2.69118722       5.60548685       1.43307768        4
Na       5.60548685       8.72564686       4.05761905        5
Na       8.72564686       5.81134723       1.43307768        6
Na       5.81134723       2.69118722       4.05761905        7
Na       5.70841704       0.00000000       1.10898978        8
Na       0.00000000       5.70841704       4.38170695        9
Cu       0.00000000       0.00000000       2.74534837       10
Cu       0.00000000       0.00000000       0.00000000       11
S        1.05316499       9.84898151       1.36930871       12
S        9.84898151      10.36366909       4.12138802       13
S       10.36366909       1.56785257       1.36930871       14
S        1.56785257       1.05316499       4.12138802       15
S        0.25813069       7.92355742       1.56436085       16
S        7.92355742      11.15870339       3.92633588       17
S       11.15870339       3.49327666       1.56436085       18
S        3.49327666       0.25813069       3.92633588       19
N        4.50645871       8.01032497       1.39608564       20
N        8.01032497       6.91037537       4.09461109       21
N        6.91037537       3.40650911       1.39608564       22
N        3.40650911       4.50645871       4.09461109       23
O        5.31324817       8.97017970       1.49746246       24
O        8.97017970       6.10358592       3.99323427       25
O        6.10358592       2.44665438       1.49746246       26
O        2.44665438       5.31324817       3.99323427       27
O        4.17334753       7.56775132       0.25765496       28
O        7.56775132       7.24348655       5.23304177       29
O        7.24348655       3.84908276       0.25765496       30
O        3.84908276       4.17334753       5.23304177       31
O        4.04025778       7.46425979       2.43856286       32
O        7.46425979       7.37657630       3.05213387       33
O        7.37657630       3.95257429       2.43856286       34
O        3.95257429       4.04025778       3.05213387       35
O        0.60045964       7.46611461       2.93724695       36
O        7.46611461      10.81637444       2.55344978       37
O       10.81637444       3.95071947       2.93724695       38
O        3.95071947       0.60045964       2.55344978       39
O        1.00071856       7.10014937       0.55276905       40
O        7.10014937      10.41611552       4.93792768       41
O       10.41611552       4.31668471       0.55276905       42
O        4.31668471       1.00071856       4.93792768       43
O        1.19838119       3.55856518       1.31090847       44
O        3.55856518      10.21845289       4.17978826       45
O       10.21845289       7.85826890       1.31090847       46
O        7.85826890       1.19838119       4.17978826       47
