36
Lattice="11.424098341166 0.0 0.0 0.0 5.2347296785193 0.0 0.0 0.0 8.6266786357933" Properties=species:S:1:pos:R:3:spacegroup_kinds:I:1 spacegroup="P 1" unit_cell=conventional occupancy="_JSON {\"0\": {\"N\": 1.0}, \"1\": {\"N\": 1.0}, \"2\": {\"N\": 1.0}, \"3\": {\"N\": 1.0}, \"4\": {\"N\": 1.0}, \"5\": {\"N\": 1.0}, \"6\": {\"N\": 1.0}, \"7\": {\"N\": 1.0}, \"8\": {\"O\": 1.0}, \"9\": {\"O\": 1.0}, \"10\": {\"O\": 1.0}, \"11\": {\"O\": 1.0}, \"12\": {\"O\": 1.0}, \"13\": {\"O\": 1.0}, \"14\": {\"O\": 1.0}, \"15\": {\"O\": 1.0}, \"16\": {\"O\": 1.0}, \"17\": {\"O\": 1.0}, \"18\": {\"O\": 1.0}, \"19\": {\"O\": 1.0}, \"20\": {\"O\": 1.0}, \"21\": {\"O\": 1.0}, \"22\": {\"O\": 1.0}, \"23\": {\"O\": 1.0}, \"24\": {\"O\": 1.0}, \"25\": {\"O\": 1.0}, \"26\": {\"O\": 1.0}, \"27\": {\"O\": 1.0}, \"28\": {\"O\": 1.0}, \"29\": {\"O\": 1.0}, \"30\": {\"O\": 1.0}, \"31\": {\"O\": 1.0}, \"32\": {\"Cu\": 1.0}, \"33\": {\"Cu\": 1.0}, \"34\": {\"Cu\": 1.0}, \"35\": {\"Cu\": 1.0}}" pbc="T T T"
N        3.23810370       4.03075592       7.90687889        0
N        8.18599464       4.03075592       7.90687889        1
N        2.47394547       1.20397376       3.59353957        2
N        8.95015287       1.20397376       3.59353957        3
N        5.71204917       1.11004037       6.27520115        4
N        0.00000000       4.12468931       1.96186183        5
N        0.00000000       1.11581605       6.68487065        6
N        5.71204917       4.11891363       2.37153133        7
O        3.25382288       3.53245186       6.77974013        8
O        8.17027546       3.53245186       6.77974013        9
O        2.45822629       1.70227782       2.46640082       10
O        8.96587205       1.70227782       2.46640082       11
O        3.13686179       0.06365093       8.08172935       12
O        8.28723655       0.06365093       8.08172935       13
O        2.57518738       5.17107875       3.76839003       14
O        8.84891096       5.17107875       3.76839003       15
O        4.64346983       0.73921605       5.66273602       16
O        6.78062851       0.73921605       5.66273602       17
O        1.06857934       4.49551363       1.34939671       18
O       10.35551900       4.49551363       1.34939671       19
O        5.71204917       1.73304216       7.32163986       20
O        0.00000000       3.50168752       3.00830054       21
O        0.00000000       0.17405936       5.90499616       22
O        5.71204917       5.06067032       1.59165684       23
O        1.07169356       1.65771297       7.13566315       24
O       10.35240478       1.65771297       7.13566315       25
O        4.64035561       3.57701671       2.82232383       26
O        6.78374273       3.57701671       2.82232383       27
O        3.32633139       3.29747125       0.31814796       28
O        8.09776695       3.29747125       0.31814796       29
O        2.38571778       1.93725843       4.63148728       30
O        9.03838056       1.93725843       4.63148728       31
Cu       2.84005943       1.11241484       6.40416475       32
Cu       8.58403891       1.11241484       6.40416475       33
Cu       2.87198974       4.12231484       2.09082543       34
Cu       8.55210860       4.12231484       2.09082543       35
