20
Lattice="7.2673130413565 0.0 0.0 0.0 6.3104132829534 0.0 0.0 0.0 7.516006291086" Properties=species:S:1:pos:R:3:spacegroup_kinds:I:1 spacegroup="P 1" unit_cell=conventional occupancy="_JSON {\"0\": {\"K\": 1.0}, \"1\": {\"K\": 1.0}, \"2\": {\"K\": 1.0}, \"3\": {\"K\": 1.0}, \"4\": {\"N\": 1.0}, \"5\": {\"N\": 1.0}, \"6\": {\"N\": 1.0}, \"7\": {\"N\": 1.0}, \"8\": {\"O\": 1.0}, \"9\": {\"O\": 1.0}, \"10\": {\"O\": 1.0}, \"11\": {\"O\": 1.0}, \"12\": {\"F\": 1.0}, \"13\": {\"F\": 1.0}, \"14\": {\"F\": 1.0}, \"15\": {\"F\": 1.0}, \"16\": {\"F\": 1.0}, \"17\": {\"F\": 1.0}, \"18\": {\"F\": 1.0}, \"19\": {\"F\": 1.0}}" pbc="T T T"
K        6.36056733       4.73280996       4.65897890        0
K        2.72691081       4.73280996       6.61503054        1
K        0.90674571       1.57760332       2.85702739        2
K        4.54040224       1.57760332       0.90097576        3
N        7.08867939       4.73280996       1.58096627        4
N        3.45502287       4.73280996       2.17703687        5
N        0.17863365       1.57760332       5.93504002        6
N        3.81229017       1.57760332       5.33896942        7
O        6.84998606       4.73280996       0.48036780        8
O        3.21632954       4.73280996       3.27763535        9
O        0.41732698       1.57760332       7.03563849       10
O        4.05098350       1.57760332       4.23837095       11
F        6.11042738       6.20120616       2.37240470       12
F        6.11042738       3.26441377       2.37240470       13
F        2.47677086       6.20120616       1.38559844       14
F        2.47677086       3.26441377       1.38559844       15
F        1.15688566       3.04599952       5.14360159       16
F        1.15688566       0.10920712       5.14360159       17
F        4.79054218       3.04599952       6.13040785       18
F        4.79054218       0.10920712       6.13040785       19
