14
Lattice="6.637519497301763 0.0 0.0 3.318759748650882 5.748260502777843 0.0 3.318759748650882 1.9160868342592814 5.419511975388008" Properties=species:S:1:pos:R:3:spacegroup_kinds:I:1 spacegroup="P 1" unit_cell=conventional occupancy="_JSON {\"0\": {\"Fe\": 1.0}, \"1\": {\"Fe\": 1.0}, \"2\": {\"Ni\": 1.0}, \"3\": {\"Ni\": 1.0}, \"4\": {\"Ni\": 1.0}, \"5\": {\"Ni\": 1.0}, \"6\": {\"S\": 1.0}, \"7\": {\"S\": 1.0}, \"8\": {\"S\": 1.0}, \"9\": {\"S\": 1.0}, \"10\": {\"S\": 1.0}, \"11\": {\"S\": 1.0}, \"12\": {\"S\": 1.0}, \"13\": {\"S\": 1.0}}" pbc="T T T"
Fe       6.63751950       3.83217367       2.70975599        0
Fe       9.95627925       5.74826050       4.06463398        1
Ni       4.97813962       0.95804342       0.67743900        2
Ni       3.31875975       3.83217367       0.67743900        3
Ni       3.31875975       1.91608683       3.38719498        4
Ni       1.65937987       0.95804342       0.67743900        5
S        8.36133601       2.83692774       2.00601084        6
S        6.63751950       5.82266553       2.00601084        7
S        6.63751950       3.83217367       4.82099143        8
S        4.91370298       2.83692774       2.00601084        9
S        8.23246273       6.74350643       4.76837913       10
S        9.95627925       3.75776864       4.76837913       11
S        9.95627925       5.74826050       1.95339854       12
S       11.68009576       6.74350643       4.76837913       13
