40
Lattice="10.614349359526553 0.0 0.0 0.0 11.151828130956 0.0 -1.5059339175163653 0.0 5.2678587857310895" Properties=species:S:1:pos:R:3:spacegroup_kinds:I:1 spacegroup="P 1" unit_cell=conventional occupancy="_JSON {\"0\": {\"K\": 1.0}, \"1\": {\"K\": 1.0}, \"2\": {\"K\": 1.0}, \"3\": {\"K\": 1.0}, \"4\": {\"Sc\": 1.0}, \"5\": {\"Sc\": 1.0}, \"6\": {\"Sc\": 1.0}, \"7\": {\"Sc\": 1.0}, \"8\": {\"Ge\": 1.0}, \"9\": {\"Ge\": 1.0}, \"10\": {\"Ge\": 1.0}, \"11\": {\"Ge\": 1.0}, \"12\": {\"Ge\": 1.0}, \"13\": {\"Ge\": 1.0}, \"14\": {\"Ge\": 1.0}, \"15\": {\"Ge\": 1.0}, \"16\": {\"O\": 1.0}, \"17\": {\"O\": 1.0}, \"18\": {\"O\": 1.0}, \"19\": {\"O\": 1.0}, \"20\": {\"O\": 1.0}, \"21\": {\"O\": 1.0}, \"22\": {\"O\": 1.0}, \"23\": {\"O\": 1.0}, \"24\": {\"O\": 1.0}, \"25\": {\"O\": 1.0}, \"26\": {\"O\": 1.0}, \"27\": {\"O\": 1.0}, \"28\": {\"O\": 1.0}, \"29\": {\"O\": 1.0}, \"30\": {\"O\": 1.0}, \"31\": {\"O\": 1.0}, \"32\": {\"O\": 1.0}, \"33\": {\"O\": 1.0}, \"34\": {\"O\": 1.0}, \"35\": {\"O\": 1.0}, \"36\": {\"O\": 1.0}, \"37\": {\"O\": 1.0}, \"38\": {\"O\": 1.0}, \"39\": {\"O\": 1.0}}" pbc="T T T"
K        1.90148476       1.74217988       2.63425984        0
K        2.65445172       3.83373419       0.00033045        1
K        6.45396372       7.31809394       5.26752834        2
K        7.20693068       9.40964825       2.63359894        3
Sc       6.45411195       0.02220417       5.26738001        4
Sc       7.20707891       5.55370989       2.63345061        5
Sc       1.90133653       5.59811824       2.63440817        6
Sc       2.65430349      11.12962396       0.00047878        7
Ge       9.81392985       3.70876568       1.15743318        8
Ge       9.06096290       1.86714838       3.79136257        9
Ge       0.04745255       9.28467975       1.47649622       10
Ge      -0.70551441       7.44306245       4.11042561       11
Ge       5.35603804       1.86673968       1.48017920       12
Ge       4.60307108       3.70917438       4.11410859       13
Ge       4.50534436       7.44265375       1.15375020       14
Ge       3.75237740       9.28508845       3.78767959       15
O        9.32117152       2.19179961       2.02252054       16
O        8.56820457       3.38411445       4.65644993       17
O        0.54021088       7.76771368       0.61140886       18
O       -0.21275608       8.96002852       3.24533825       19
O        9.07434770       9.75742166       0.87822814       20
O        8.32138074       6.97032054       3.51215753       21
O        0.78703470       4.18150759       1.75570125       22
O        0.03406775       1.39440648       4.38963064       23
O        8.57414020       4.89707256       1.37572247       24
O        7.82117324       0.67884150       4.00965187       25
O        1.28724220      10.47298663       1.25820692       26
O        0.53427524       6.25475557       3.89213631       27
O        5.84777823       3.38424135       0.61500551       28
O        5.09481127       2.19167271       3.24893491       29
O        4.01360417       8.96015542       2.01892388       30
O        3.26063721       7.76758678       4.65285327       31
O        3.26522879       6.25498924       1.37306437       32
O        2.51226183      10.47275296       4.00699376       33
O        6.59615361       0.67907517       1.26086502       34
O        5.84318665       4.89683890       3.89479441       35
O        3.76982438       1.39220622       0.88061892       36
O        3.01685742       4.18370784       3.51454831       37
O        6.09155802       6.96812029       1.75331047       38
O        5.33859106       9.75962191       4.38723987       39
