38
Lattice="12.175217510804 0.0 0.0 0.0 12.175217510804 0.0 0.0 0.0 4.9032633825147" Properties=species:S:1:pos:R:3:spacegroup_kinds:I:1 spacegroup="P 1" unit_cell=conventional occupancy="_JSON {\"0\": {\"Li\": 1.0}, \"1\": {\"Li\": 1.0}, \"2\": {\"Ti\": 1.0}, \"3\": {\"Ti\": 1.0}, \"4\": {\"Ti\": 1.0}, \"5\": {\"Ti\": 1.0}, \"6\": {\"Ti\": 1.0}, \"7\": {\"Ti\": 1.0}, \"8\": {\"Ti\": 1.0}, \"9\": {\"Ti\": 1.0}, \"10\": {\"Ge\": 1.0}, \"11\": {\"Ge\": 1.0}, \"12\": {\"Ge\": 1.0}, \"13\": {\"Ge\": 1.0}, \"14\": {\"O\": 1.0}, \"15\": {\"O\": 1.0}, \"16\": {\"O\": 1.0}, \"17\": {\"O\": 1.0}, \"18\": {\"O\": 1.0}, \"19\": {\"O\": 1.0}, \"20\": {\"O\": 1.0}, \"21\": {\"O\": 1.0}, \"22\": {\"O\": 1.0}, \"23\": {\"O\": 1.0}, \"24\": {\"O\": 1.0}, \"25\": {\"O\": 1.0}, \"26\": {\"O\": 1.0}, \"27\": {\"O\": 1.0}, \"28\": {\"O\": 1.0}, \"29\": {\"O\": 1.0}, \"30\": {\"O\": 1.0}, \"31\": {\"O\": 1.0}, \"32\": {\"O\": 1.0}, \"33\": {\"O\": 1.0}, \"34\": {\"O\": 1.0}, \"35\": {\"O\": 1.0}, \"36\": {\"O\": 1.0}, \"37\": {\"O\": 1.0}}" pbc="T T T"
Li       6.08760876       6.08760876       0.00000000        0
Li       0.00000000       0.00000000       0.00000000        1
Ti       1.80619899       4.28140976       0.43994897        2
Ti       1.80619899       7.89380775       0.43994897        3
Ti       7.89380775      10.36901852       4.46331441        4
Ti       7.89380775       1.80619899       4.46331441        5
Ti       4.28140976       1.80619899       4.46331441        6
Ti       4.28140976      10.36901852       4.46331441        7
Ti      10.36901852       7.89380775       0.43994897        8
Ti      10.36901852       4.28140976       0.43994897        9
Ge       9.13141313       3.04380438       2.45163169       10
Ge       9.13141313       9.13141313       2.45163169       11
Ge       3.04380438       9.13141313       2.45163169       12
Ge       3.04380438       3.04380438       2.45163169       13
O        2.75600492      10.67511722       3.63277801       14
O        2.75600492       1.50010029       3.63277801       15
O        8.84361367       4.58750847       1.27048537       16
O        8.84361367       7.58770904       1.27048537       17
O       10.67511722       2.75600492       1.27048537       18
O       10.67511722       9.41921259       1.27048537       19
O        4.58750847       8.84361367       3.63277801       20
O        4.58750847       3.33160384       3.63277801       21
O        9.41921259      10.67511722       3.63277801       22
O        9.41921259       1.50010029       3.63277801       23
O        3.33160384       4.58750847       1.27048537       24
O        3.33160384       7.58770904       1.27048537       25
O        1.50010029       2.75600492       1.27048537       26
O        1.50010029       9.41921259       1.27048537       27
O        7.58770904       8.84361367       3.63277801       28
O        7.58770904       3.33160384       3.63277801       29
O        1.97508138       4.11252737       3.57462980       30
O        1.97508138       8.06269014       3.57462980       31
O        8.06269014      10.20013613       1.32863358       32
O        8.06269014       1.97508138       1.32863358       33
O        4.11252737       1.97508138       1.32863358       34
O        4.11252737      10.20013613       1.32863358       35
O       10.20013613       8.06269014       3.57462980       36
O       10.20013613       4.11252737       3.57462980       37
