36
Lattice="13.73433055286765 0.0 0.0 6.867165037293805 11.89427930082371 0.0 6.867165037293805 3.964759674896199 11.214034100461813" Properties=species:S:1:pos:R:3:spacegroup_kinds:I:1 spacegroup="P 1" unit_cell=conventional occupancy="_JSON {\"0\": {\"Ge\": 1.0}, \"1\": {\"Ge\": 1.0}, \"2\": {\"Ge\": 1.0}, \"3\": {\"Ge\": 1.0}, \"4\": {\"Ge\": 1.0}, \"5\": {\"Ge\": 1.0}, \"6\": {\"Ge\": 1.0}, \"7\": {\"Ge\": 1.0}, \"8\": {\"Ge\": 1.0}, \"9\": {\"Ge\": 1.0}, \"10\": {\"Ge\": 1.0}, \"11\": {\"Ge\": 1.0}, \"12\": {\"Ge\": 1.0}, \"13\": {\"Ge\": 1.0}, \"14\": {\"Ge\": 1.0}, \"15\": {\"Ge\": 1.0}, \"16\": {\"Ge\": 1.0}, \"17\": {\"Ge\": 1.0}, \"18\": {\"Ge\": 1.0}, \"19\": {\"Ge\": 1.0}, \"20\": {\"Ge\": 1.0}, \"21\": {\"Ge\": 1.0}, \"22\": {\"Ge\": 1.0}, \"23\": {\"Ge\": 1.0}, \"24\": {\"Ge\": 1.0}, \"25\": {\"Ge\": 1.0}, \"26\": {\"Ge\": 1.0}, \"27\": {\"Ge\": 1.0}, \"28\": {\"Ge\": 1.0}, \"29\": {\"Ge\": 1.0}, \"30\": {\"Ge\": 1.0}, \"31\": {\"Ge\": 1.0}, \"32\": {\"Ge\": 1.0}, \"33\": {\"Ge\": 1.0}, \"34\": {\"Ge\": 1.0}, \"35\": {\"Ge\": 1.0}}" pbc="T T T"
Ge      15.75706678       9.09734696       0.57445652        0
Ge      11.71159394       9.09734698       0.57445653        1
Ge      11.71159394       3.57405174       8.38557550        2
Ge      15.75706678       3.57405172       8.38557549        3
Ge      15.81818165       9.13263165       8.93508195        4
Ge      15.81818165      11.46828655       5.63196713        5
Ge      11.65047883      11.46828654       5.63196712        6
Ge      11.65047883       9.13263163       8.93508194        7
Ge      13.73433045       5.59386466       0.57445653        8
Ge      13.73433045       2.40622432       5.08246069        9
Ge      17.84091815       7.96480423       5.63196713       10
Ge       9.62774250       7.96480424       5.63196714       11
Ge       8.95101640       8.35551218       8.38557550       12
Ge       8.95101640      10.69116709       5.08246069       13
Ge      18.51764413      10.69116707       5.08246068       14
Ge      18.51764414       8.35551217       8.38557549       15
Ge      15.75706681       4.35546768       5.63196712       16
Ge      11.71159397       4.35546770       5.63196714       17
Ge      11.71159397       6.76169209       2.22905201       18
Ge      15.75706681       6.76169207       2.22905199       19
Ge      10.97375273      11.85899448       8.38557549       20
Ge      16.49490763      11.85899449       8.38557549       21
Ge      13.73433030       5.52329509       8.93508194       22
Ge      13.73433030      10.26517438       2.22905199       23
Ge      20.60149545      11.89427922      10.07127258       24
Ge      20.60149545      13.46004653       7.85694324       25
Ge      15.09032452       8.71240313       6.16059939       26
Ge      12.37833606       8.71240313       6.16059939       27
Ge      21.95748973      11.11139559       7.85694324       28
Ge      19.24550126      11.11139559       7.85694324       29
Ge      13.73433034       6.36375219       6.16059939       30
Ge      13.73433034       7.92951950       3.94627004       31
Ge      13.73433037       7.92951952       1.40175426       32
Ge      13.73433037       3.96475971       7.00877131       33
Ge      17.16791289       9.91189936       7.00877131       34
Ge      10.30074762       9.91189936       7.00877131       35
