32
Lattice="7.8996203319001195 0.0 0.0 3.9498101659500606 6.841271887677562 0.0 3.9498101659500606 2.280423962559188 6.450012991623595" Properties=species:S:1:pos:R:3:spacegroup_kinds:I:1 spacegroup="P 1" unit_cell=conventional occupancy="_JSON {\"0\": {\"Sc\": 1.0}, \"1\": {\"Sc\": 1.0}, \"2\": {\"Ge\": 1.0}, \"3\": {\"Ge\": 1.0}, \"4\": {\"O\": 1.0}, \"5\": {\"O\": 1.0}, \"6\": {\"O\": 1.0}, \"7\": {\"O\": 1.0}, \"8\": {\"O\": 1.0}, \"9\": {\"O\": 1.0}, \"10\": {\"O\": 1.0}, \"11\": {\"O\": 1.0}, \"12\": {\"O\": 1.0}, \"13\": {\"O\": 1.0}, \"14\": {\"O\": 1.0}, \"15\": {\"O\": 1.0}, \"16\": {\"O\": 1.0}, \"17\": {\"O\": 1.0}, \"18\": {\"O\": 1.0}, \"19\": {\"O\": 1.0}, \"20\": {\"O\": 1.0}, \"21\": {\"O\": 1.0}, \"22\": {\"O\": 1.0}, \"23\": {\"O\": 1.0}, \"24\": {\"O\": 1.0}, \"25\": {\"O\": 1.0}, \"26\": {\"O\": 1.0}, \"27\": {\"O\": 1.0}, \"28\": {\"O\": 1.0}, \"29\": {\"O\": 1.0}, \"30\": {\"O\": 1.0}, \"31\": {\"O\": 1.0}}" pbc="T T T"
Sc       7.89962033       4.56084793       3.22500650        0
Sc      11.84943050       6.84127189       4.83750974        1
Ge       0.00000000       0.00000000       0.00000000        2
Ge       3.94981017       2.28042396       1.61250325        3
O       11.84943050       4.17831389       4.82193426        4
O       11.84943050       5.93893452       2.33204069        5
O        9.42436252       2.77820024       1.96448423        6
O        6.37487814       2.77820024       1.96448423        7
O        9.54324122       8.17275089       4.82193426        8
O       14.15561977       8.17275089       4.82193426        9
O       14.15561977       7.27041351       6.09803201       10
O        9.54324122       7.27041351       6.09803201       11
O        7.11817324       6.77263724       1.96448423       12
O        7.11817324       4.10967924       5.73047555       13
O        8.68106742       4.10967924       5.73047555       14
O        8.68106742       6.77263724       1.96448423       15
O       13.37417269       8.62391957       6.09803201       16
O       10.32468831       8.62391957       6.09803201       17
O        7.89962033       5.46318530       5.73047555       18
O        7.89962033       7.22380592       3.24058198       19
O       11.06798341       7.29244057       2.33204069       20
O       11.06798341       4.62948257       6.09803201       21
O       12.63087759       4.62948257       6.09803201       22
O       12.63087759       7.29244057       2.33204069       23
O        5.59343106       4.13170630       1.96448423       24
O       10.20580961       4.13170630       1.96448423       25
O       10.20580961       3.22936893       3.24058198       26
O        5.59343106       3.22936893       3.24058198       27
O        7.89962033       4.56084793       0.80625162       28
O        7.89962033       2.28042396       4.03125812       29
O        9.87452541       5.70105991       4.03125812       30
O        5.92471525       5.70105991       4.03125812       31
