16
Lattice="5.0797783418124 0.0 0.0 0.0 5.0797783418124 0.0 0.0 0.0 5.0797783418124" Properties=species:S:1:pos:R:3:spacegroup_kinds:I:1 spacegroup="P 1" unit_cell=conventional occupancy="_JSON {\"0\": {\"P\": 1.0}, \"1\": {\"P\": 1.0}, \"2\": {\"P\": 1.0}, \"3\": {\"P\": 1.0}, \"4\": {\"H\": 1.0}, \"5\": {\"H\": 1.0}, \"6\": {\"H\": 1.0}, \"7\": {\"H\": 1.0}, \"8\": {\"H\": 1.0}, \"9\": {\"H\": 1.0}, \"10\": {\"H\": 1.0}, \"11\": {\"H\": 1.0}, \"12\": {\"H\": 1.0}, \"13\": {\"H\": 1.0}, \"14\": {\"H\": 1.0}, \"15\": {\"H\": 1.0}}" pbc="T T T"
P        3.80983376       3.80983376       1.26994459        0
P        1.26994459       3.80983376       3.80983376        1
P        3.80983376       1.26994459       3.80983376        2
P        1.26994459       1.26994459       1.26994459        3
H        2.53988917       0.00000000       2.04195593        4
H        0.00000000       3.03782241       2.53988917        5
H        3.03782241       2.53988917       0.00000000        6
H        0.00000000       4.58184511       2.53988917        7
H        2.53988917       0.00000000       0.49793324        8
H        4.58184511       2.53988917       0.00000000        9
H        2.53988917       0.00000000       3.03782241       10
H        2.04195593       2.53988917       0.00000000       11
H        2.53988917       0.00000000       4.58184511       12
H        0.49793324       2.53988917       0.00000000       13
H        0.00000000       2.04195593       2.53988917       14
H        0.00000000       0.49793324       2.53988917       15
