34
Lattice="7.9069241606393 0.0 0.0 0.0 10.664915662784 0.0 0.0 0.0 5.4521256954691" Properties=species:S:1:pos:R:3:spacegroup_kinds:I:1 spacegroup="P 1" unit_cell=conventional occupancy="_JSON {\"0\": {\"Li\": 1.0}, \"1\": {\"Li\": 1.0}, \"2\": {\"Li\": 1.0}, \"3\": {\"Li\": 1.0}, \"4\": {\"V\": 1.0}, \"5\": {\"V\": 1.0}, \"6\": {\"V\": 1.0}, \"7\": {\"V\": 1.0}, \"8\": {\"P\": 1.0}, \"9\": {\"P\": 1.0}, \"10\": {\"P\": 1.0}, \"11\": {\"P\": 1.0}, \"12\": {\"O\": 1.0}, \"13\": {\"O\": 1.0}, \"14\": {\"O\": 1.0}, \"15\": {\"O\": 1.0}, \"16\": {\"O\": 1.0}, \"17\": {\"O\": 1.0}, \"18\": {\"O\": 1.0}, \"19\": {\"O\": 1.0}, \"20\": {\"O\": 1.0}, \"21\": {\"O\": 1.0}, \"22\": {\"O\": 1.0}, \"23\": {\"O\": 1.0}, \"24\": {\"O\": 1.0}, \"25\": {\"O\": 1.0}, \"26\": {\"O\": 1.0}, \"27\": {\"O\": 1.0}, \"28\": {\"O\": 1.0}, \"29\": {\"O\": 1.0}, \"30\": {\"O\": 1.0}, \"31\": {\"O\": 1.0}, \"32\": {\"O\": 1.0}, \"33\": {\"O\": 1.0}}" pbc="T T T"
Li       3.04562970       6.62691411       2.95421101        0
Li       6.99909179       9.37045938       2.49791469        1
Li       4.86129446       4.03800155       2.95421101        2
Li       0.90783238       1.29445628       2.49791469        3
V        2.39406266       4.81668894       5.30065459        4
V        6.34752474       0.51576889       0.15147111        5
V        5.51286150       5.84822673       5.30065459        6
V        1.55939942      10.14914677       0.15147111        7
P        0.42470633       7.33015019       4.46239718        8
P        4.37816841       8.66722330       0.98972851        9
P        7.48221783       3.33476547       4.46239718       10
P        3.52875575       1.99769236       0.98972851       11
O        1.43926441       0.07050399       4.12491860       12
O        5.39272649       5.26195385       1.32720710       13
O        6.46765975      10.59441168       4.12491860       14
O        2.51419767       5.40296182       1.32720710       15
O        1.64784443       6.36044979       4.27534967       16
O        5.60130651       9.63692370       1.17677603       17
O        6.25907973       4.30446587       4.27534967       18
O        2.30561765       1.02799196       1.17677603       19
O        7.87844057       7.90632328       3.15385241       20
O        3.92497849       8.09105022       2.29827329       21
O        0.02848359       2.75859239       3.15385241       22
O        3.98194567       2.57386545       2.29827329       23
O        0.87703568       8.43562675       0.04250312       24
O        4.83049776       7.56174674       5.40962258       25
O        7.02988848       2.22928891       0.04250312       26
O        3.07642640       3.10316892       5.40962258       27
O        7.22316079       6.54008268       5.24237987       28
O        3.26969871       9.45729082       0.20974583       29
O        0.68376337       4.12483299       5.24237987       30
O        4.63722545       1.20762484       0.20974583       31
O        3.95346208       5.33245783       4.38962238       32
O        0.00000000       0.00000000       1.06250332       33
