28
Lattice="8.7855551151989 0.0 0.0 0.0 9.1834096052599 0.0 0.0 0.0 8.3650461376369" Properties=species:S:1:pos:R:3:spacegroup_kinds:I:1 spacegroup="P 1" unit_cell=conventional occupancy="_JSON {\"0\": {\"Li\": 1.0}, \"1\": {\"Li\": 1.0}, \"2\": {\"Li\": 1.0}, \"3\": {\"Li\": 1.0}, \"4\": {\"Li\": 1.0}, \"5\": {\"Li\": 1.0}, \"6\": {\"Li\": 1.0}, \"7\": {\"Li\": 1.0}, \"8\": {\"P\": 1.0}, \"9\": {\"P\": 1.0}, \"10\": {\"P\": 1.0}, \"11\": {\"P\": 1.0}, \"12\": {\"S\": 1.0}, \"13\": {\"S\": 1.0}, \"14\": {\"S\": 1.0}, \"15\": {\"S\": 1.0}, \"16\": {\"S\": 1.0}, \"17\": {\"S\": 1.0}, \"18\": {\"S\": 1.0}, \"19\": {\"S\": 1.0}, \"20\": {\"S\": 1.0}, \"21\": {\"S\": 1.0}, \"22\": {\"S\": 1.0}, \"23\": {\"S\": 1.0}, \"24\": {\"S\": 1.0}, \"25\": {\"S\": 1.0}, \"26\": {\"S\": 1.0}, \"27\": {\"S\": 1.0}}" pbc="T T T"
Li       1.87325578       1.30216757       7.96648977        0
Li       1.87325578       7.88124203       3.78396670        1
Li       6.26603334       5.89387237       4.58107944        2
Li       6.26603334       3.28953723       0.39855637        3
Li       6.91229934       1.30216757       4.58107944        4
Li       6.91229934       7.88124203       0.39855637        5
Li       2.51952178       5.89387237       7.96648977        6
Li       2.51952178       3.28953723       3.78396670        7
P        4.39277756       3.46278408       6.27378460        8
P        4.39277756       5.72062553       2.09126153        9
P        0.00000000       8.05448888       6.27378460       10
P        0.00000000       1.12892073       2.09126153       11
S        4.64780056       2.28801797       4.61161013       12
S        4.64780056       6.89539164       0.42908706       13
S        0.25502300       6.87972277       7.93595908       14
S        0.25502300       2.30368683       3.75343601       15
S        4.13775456       2.28801797       7.93595908       16
S        4.13775456       6.89539164       3.75343601       17
S        8.53053212       6.87972277       4.61161013       18
S        8.53053212       2.30368683       0.42908706       19
S        2.72884077       4.59428310       5.89482027       20
S        2.72884077       4.58912651       1.71229720       21
S        7.12161833       0.00257829       6.65274894       22
S        7.12161833       9.18083131       2.47022587       23
S        6.05671434       4.59428310       6.65274894       24
S        6.05671434       4.58912651       2.47022587       25
S        1.66393679       0.00257829       5.89482027       26
S        1.66393679       9.18083131       1.71229720       27
