36
Lattice="8.0449192968 0.0 0.0 0.0 14.9012335154 0.0 0.0 0.0 4.460636352" Properties=species:S:1:pos:R:3:spacegroup_kinds:I:1 spacegroup="P 1" unit_cell=conventional occupancy="_JSON {\"0\": {\"Li\": 1.0}, \"1\": {\"Li\": 1.0}, \"2\": {\"Li\": 1.0}, \"3\": {\"Li\": 1.0}, \"4\": {\"Li\": 1.0}, \"5\": {\"Li\": 1.0}, \"6\": {\"Li\": 1.0}, \"7\": {\"Li\": 1.0}, \"8\": {\"Li\": 1.0}, \"9\": {\"Li\": 1.0}, \"10\": {\"Li\": 1.0}, \"11\": {\"Li\": 1.0}, \"12\": {\"Li\": 1.0}, \"13\": {\"Li\": 1.0}, \"14\": {\"Li\": 1.0}, \"15\": {\"Li\": 1.0}, \"16\": {\"Li\": 1.0}, \"17\": {\"Li\": 1.0}, \"18\": {\"Li\": 1.0}, \"19\": {\"Li\": 1.0}, \"20\": {\"Li\": 1.0}, \"21\": {\"Li\": 1.0}, \"22\": {\"Li\": 1.0}, \"23\": {\"Li\": 1.0}, \"24\": {\"Li\": 1.0}, \"25\": {\"Li\": 1.0}, \"26\": {\"Li\": 1.0}, \"27\": {\"Li\": 1.0}, \"28\": {\"Si\": 1.0}, \"29\": {\"Si\": 1.0}, \"30\": {\"Si\": 1.0}, \"31\": {\"Si\": 1.0}, \"32\": {\"Si\": 1.0}, \"33\": {\"Si\": 1.0}, \"34\": {\"Si\": 1.0}, \"35\": {\"Si\": 1.0}}" pbc="T T T"
Li       2.62752655       7.26197932       2.23031818        0
Li       6.64998620       0.18863743       2.23031818        1
Li       5.41739275       7.63925419       2.23031818        2
Li       1.39493310      14.71259608       2.23031818        3
Li       2.38722936      12.41523788       2.23031818        4
Li       6.40968901       9.93661239       2.23031818        5
Li       5.65768994       2.48599563       2.23031818        6
Li       1.63523029       4.96462113       2.23031818        7
Li       0.93665203      10.27373087       2.23031818        8
Li       4.95911168      12.07811940       2.23031818        9
Li       7.10826726       4.62750265       2.23031818       10
Li       3.08580762       2.82311411       2.23031818       11
Li       3.33464699      11.28482587       0.00000000       12
Li       7.35710664      11.06702440       0.00000000       13
Li       4.71027231       3.61640764       0.00000000       14
Li       0.68781266       3.83420911       0.00000000       15
Li       1.87999738       8.97426670       0.00000000       16
Li       5.90245703      13.37758357       0.00000000       17
Li       6.16492191       5.92696682       0.00000000       18
Li       2.14246226       1.52364994       0.00000000       19
Li       0.97648937      12.75760984       0.00000000       20
Li       4.99894902       9.59424043       0.00000000       21
Li       7.06842992       2.14362367       0.00000000       22
Li       3.04597027       5.30699309       0.00000000       23
Li       4.02245965       0.00000000       2.23031818       24
Li       0.00000000       7.45061676       2.23031818       25
Li       4.02245965       7.45061676       0.00000000       26
Li       0.00000000       0.00000000       0.00000000       27
Si       3.56264611       9.73917698       2.23031818       28
Si       7.58510576      12.61267330       2.23031818       29
Si       4.48227319       5.16205654       2.23031818       30
Si       0.45981354       2.28856022       2.23031818       31
Si       3.21156364      13.94851419       0.00000000       32
Si       7.23402329       8.40333609       0.00000000       33
Si       4.83335566       0.95271933       0.00000000       34
Si       0.81089601       6.49789743       0.00000000       35
