14
Lattice="6.020153829180936 0.0 0.0 3.010076914590469 5.213606150760854 0.0 3.010076914590469 1.737868716920285 4.915435018185192" Properties=species:S:1:pos:R:3:spacegroup_kinds:I:1 spacegroup="P 1" unit_cell=conventional occupancy="_JSON {\"0\": {\"Mg\": 1.0}, \"1\": {\"Mg\": 1.0}, \"2\": {\"Ti\": 1.0}, \"3\": {\"Ti\": 1.0}, \"4\": {\"Ti\": 1.0}, \"5\": {\"Ti\": 1.0}, \"6\": {\"O\": 1.0}, \"7\": {\"O\": 1.0}, \"8\": {\"O\": 1.0}, \"9\": {\"O\": 1.0}, \"10\": {\"O\": 1.0}, \"11\": {\"O\": 1.0}, \"12\": {\"O\": 1.0}, \"13\": {\"O\": 1.0}}" pbc="T T T"
Mg       9.03023074       5.21360615       3.68657626        0
Mg       6.02015383       3.47573743       2.45771751        1
Ti       3.01007691       1.73786872       3.07214689        2
Ti       3.01007691       3.47573743       0.61442938        3
Ti       4.51511537       0.86893436       0.61442938        4
Ti       1.50503846       0.86893436       0.61442938        5
O        6.02015383       3.47573743       4.42435028        6
O        6.02015383       5.32989659       1.80217325        7
O        7.62590276       2.54865785       1.80217325        8
O        4.41440489       2.54865785       1.80217325        9
O        9.03023074       5.21360615       1.71994349       10
O        9.03023074       3.35944699       4.34212052       11
O        7.42448181       6.14068573       4.34212052       12
O       10.63597968       6.14068573       4.34212052       13
