32
Lattice="7.0950331999733 0.0 0.0 0.0 8.1163912615536 0.0 0.0 0.0 9.3280631158671" Properties=species:S:1:pos:R:3:spacegroup_kinds:I:1 spacegroup="P 1" unit_cell=conventional occupancy="_JSON {\"0\": {\"V\": 1.0}, \"1\": {\"V\": 1.0}, \"2\": {\"V\": 1.0}, \"3\": {\"V\": 1.0}, \"4\": {\"S\": 1.0}, \"5\": {\"S\": 1.0}, \"6\": {\"S\": 1.0}, \"7\": {\"S\": 1.0}, \"8\": {\"S\": 1.0}, \"9\": {\"S\": 1.0}, \"10\": {\"S\": 1.0}, \"11\": {\"S\": 1.0}, \"12\": {\"S\": 1.0}, \"13\": {\"S\": 1.0}, \"14\": {\"S\": 1.0}, \"15\": {\"S\": 1.0}, \"16\": {\"S\": 1.0}, \"17\": {\"S\": 1.0}, \"18\": {\"S\": 1.0}, \"19\": {\"S\": 1.0}, \"20\": {\"N\": 1.0}, \"21\": {\"N\": 1.0}, \"22\": {\"N\": 1.0}, \"23\": {\"N\": 1.0}, \"24\": {\"N\": 1.0}, \"25\": {\"N\": 1.0}, \"26\": {\"N\": 1.0}, \"27\": {\"N\": 1.0}, \"28\": {\"N\": 1.0}, \"29\": {\"N\": 1.0}, \"30\": {\"N\": 1.0}, \"31\": {\"N\": 1.0}}" pbc="T T T"
V        0.48536107       6.08729345       8.85940222        0
V        4.03287767       6.08729345       5.13269245        1
V        6.60967213       2.02909782       0.46866089        2
V        3.06215553       2.02909782       4.19537067        3
S        1.17924059       0.39258626       8.82903658        4
S        1.17924059       3.66560937       8.82903658        5
S        4.72675719       0.39258626       5.16305810        6
S        4.72675719       3.66560937       5.16305810        7
S        5.91579261       4.45078189       0.49902654        8
S        5.91579261       7.72380500       0.49902654        9
S        2.36827601       4.45078189       4.16500502       10
S        2.36827601       7.72380500       4.16500502       11
S        2.96164425       6.08729345       8.20939348       12
S        6.50916085       6.08729345       5.78270119       13
S        4.13338895       2.02909782       1.11866964       14
S        0.58587235       2.02909782       3.54536192       15
S        1.73317704       6.08729345       1.87269631       16
S        5.28069364       6.08729345       2.79133525       17
S        5.36185616       2.02909782       7.45536681       18
S        1.81433956       2.02909782       6.53672787       19
N        1.63462425       3.41412446       7.24734799       20
N        1.63462425       0.64407117       7.24734799       21
N        5.18214085       3.41412446       6.74474669       22
N        5.18214085       0.64407117       6.74474669       23
N        5.46040895       7.47232010       2.08071513       24
N        5.46040895       4.70226680       2.08071513       25
N        1.91289234       7.47232010       2.58331643       26
N        1.91289234       4.70226680       2.58331643       27
N        3.32633021       6.08729345       6.66405242       28
N        6.87384681       6.08729345       7.32804225       29
N        3.76870299       2.02909782       2.66401069       30
N        0.22118639       2.02909782       2.00002087       31
