32
Lattice="5.9609016786 0.0 0.0 0.0 9.7468124449 0.0 0.0 0.0 12.0205228943" Properties=species:S:1:pos:R:3:spacegroup_kinds:I:1 spacegroup="P 1" unit_cell=conventional occupancy="_JSON {\"0\": {\"Na\": 1.0}, \"1\": {\"Na\": 1.0}, \"2\": {\"Na\": 1.0}, \"3\": {\"Na\": 1.0}, \"4\": {\"Na\": 1.0}, \"5\": {\"Na\": 1.0}, \"6\": {\"Na\": 1.0}, \"7\": {\"Na\": 1.0}, \"8\": {\"Na\": 1.0}, \"9\": {\"Na\": 1.0}, \"10\": {\"Na\": 1.0}, \"11\": {\"Na\": 1.0}, \"12\": {\"V\": 1.0}, \"13\": {\"V\": 1.0}, \"14\": {\"V\": 1.0}, \"15\": {\"V\": 1.0}, \"16\": {\"S\": 1.0}, \"17\": {\"S\": 1.0}, \"18\": {\"S\": 1.0}, \"19\": {\"S\": 1.0}, \"20\": {\"S\": 1.0}, \"21\": {\"S\": 1.0}, \"22\": {\"S\": 1.0}, \"23\": {\"S\": 1.0}, \"24\": {\"S\": 1.0}, \"25\": {\"S\": 1.0}, \"26\": {\"S\": 1.0}, \"27\": {\"S\": 1.0}, \"28\": {\"O\": 1.0}, \"29\": {\"O\": 1.0}, \"30\": {\"O\": 1.0}, \"31\": {\"O\": 1.0}}" pbc="T T T"
Na       1.48497577       9.31563814      10.46027664        0
Na       1.48497577       5.30458053      10.46027664        1
Na       4.46542661       9.31563814       7.57050770        2
Na       4.46542661       5.30458053       7.57050770        3
Na       4.47592591       4.44223192       1.56024626        4
Na       4.47592591       0.43117430       1.56024626        5
Na       1.49547507       4.44223192       4.45001519        6
Na       1.49547507       0.43117430       4.45001519        7
Na       1.55957751       7.31010933       1.59100085        8
Na       4.54002835       7.31010933       4.41926060        9
Na       4.40132416       2.43670311      10.42952205       10
Na       1.42087333       2.43670311       7.60126230       11
V        2.04864661       7.31010933       6.56957151       12
V        5.02909745       7.31010933      11.46121283       13
V        3.91225506       2.43670311       5.45095138       14
V        0.93180423       2.43670311       0.55931007       15
S        1.36299970       9.14306058       7.52181429       16
S        1.36299970       5.47715809       7.52181429       17
S        4.34345054       9.14306058      10.50897005       18
S        4.34345054       5.47715809      10.50897005       19
S        4.59790198       4.26965435       4.49870860       20
S        4.59790198       0.60375187       4.49870860       21
S        1.61745114       4.26965435       1.51155285       22
S        1.61745114       0.60375187       1.51155285       23
S        1.46919064       7.31010933       4.44740740       24
S        4.44964148       7.31010933       1.56285405       25
S        4.49171104       2.43670311       7.57311549       26
S        1.51126020       2.43670311      10.45766885       27
O        0.73485778       7.31010933      11.40732180       28
O        3.71530862       7.31010933       6.62346254       29
O        5.22604390       2.43670311       0.61320109       30
O        2.24559306       2.43670311       5.39706036       31
