16
Lattice="7.747906979808565 0.0 0.0 -1.606749860174515 7.579473428582982 0.0 0.0 0.0 5.9496453391586" Properties=species:S:1:pos:R:3:spacegroup_kinds:I:1 spacegroup="P 1" unit_cell=conventional occupancy="_JSON {\"0\": {\"Na\": 1.0}, \"1\": {\"Na\": 1.0}, \"2\": {\"Na\": 1.0}, \"3\": {\"Na\": 1.0}, \"4\": {\"Na\": 1.0}, \"5\": {\"Na\": 1.0}, \"6\": {\"V\": 1.0}, \"7\": {\"V\": 1.0}, \"8\": {\"S\": 1.0}, \"9\": {\"S\": 1.0}, \"10\": {\"S\": 1.0}, \"11\": {\"S\": 1.0}, \"12\": {\"S\": 1.0}, \"13\": {\"S\": 1.0}, \"14\": {\"O\": 1.0}, \"15\": {\"O\": 1.0}}" pbc="T T T"
Na       0.68224860       3.13500017       0.11245096        0
Na       2.92536394       1.31754889       3.08727363        1
Na       3.21579318       6.26192454       0.11245096        2
Na       5.45890852       4.44447326       3.08727363        3
Na      -0.50570243       6.68736590       0.00133105        4
Na       6.64685954       0.89210753       2.97615372        5
V        1.16562071       5.33320086       2.49860637        6
V        4.97553641       2.24627257       5.47342904        7
S        5.38188199       4.27194529       0.20848004        8
S        3.06298950       6.15079391       3.18330271        9
S        3.07816762       1.42867952       0.20848004       10
S        0.75927513       3.30752814       3.18330271       11
S       -0.48324299       6.66916847       3.08803129       12
S        6.62440011       0.91030495       0.11320862       13
O        1.20577019       5.30067033       0.83239832       14
O        4.93538693       2.27880310       3.80722099       15
