12
Lattice="6.066383894284459 0.0 0.0 -1.0159282716031437 5.9807109359833905 0.0 -3.954906154655388 3.339749778873396 7.159757462322741" Properties=species:S:1:pos:R:3:spacegroup_kinds:I:1 spacegroup="P 1" unit_cell=conventional occupancy="_JSON {\"0\": {\"Na\": 1.0}, \"1\": {\"Na\": 1.0}, \"2\": {\"Na\": 1.0}, \"3\": {\"Na\": 1.0}, \"4\": {\"S\": 1.0}, \"5\": {\"S\": 1.0}, \"6\": {\"S\": 1.0}, \"7\": {\"S\": 1.0}, \"8\": {\"S\": 1.0}, \"9\": {\"S\": 1.0}, \"10\": {\"N\": 1.0}, \"11\": {\"N\": 1.0}}" pbc="T T T"
Na       3.53077343       2.14121502       2.04147624        0
Na      -2.43522397       7.17924569       5.11828123        1
Na       0.54777473       4.66023036       3.57987873        2
Na       0.00000000       0.00000000       0.00000000        3
S        0.46560603       6.73921891       5.92022827        4
S       -1.51561382       4.39307351       5.92022827        5
S        2.61116328       4.92738720       1.23952919        6
S        0.62994344       2.58124181       1.23952919        7
S        2.57694848       2.94667957       4.50010435        8
S       -1.48139901       6.37378114       2.65965311        9
N       -0.66753808       5.68651026       6.44053938       10
N        1.76308755       3.63395046       0.71921808       11
