32
Lattice="7.560373288263842 0.0 0.0 3.780186644131922 6.547475329729778 0.0 3.780186644131922 2.182491776576593 6.173018940404735" Properties=species:S:1:pos:R:3:spacegroup_kinds:I:1 spacegroup="P 1" unit_cell=conventional occupancy="_JSON {\"0\": {\"Sc\": 1.0}, \"1\": {\"Sc\": 1.0}, \"2\": {\"Ti\": 1.0}, \"3\": {\"Ti\": 1.0}, \"4\": {\"O\": 1.0}, \"5\": {\"O\": 1.0}, \"6\": {\"O\": 1.0}, \"7\": {\"O\": 1.0}, \"8\": {\"O\": 1.0}, \"9\": {\"O\": 1.0}, \"10\": {\"O\": 1.0}, \"11\": {\"O\": 1.0}, \"12\": {\"O\": 1.0}, \"13\": {\"O\": 1.0}, \"14\": {\"O\": 1.0}, \"15\": {\"O\": 1.0}, \"16\": {\"O\": 1.0}, \"17\": {\"O\": 1.0}, \"18\": {\"O\": 1.0}, \"19\": {\"O\": 1.0}, \"20\": {\"O\": 1.0}, \"21\": {\"O\": 1.0}, \"22\": {\"O\": 1.0}, \"23\": {\"O\": 1.0}, \"24\": {\"O\": 1.0}, \"25\": {\"O\": 1.0}, \"26\": {\"O\": 1.0}, \"27\": {\"O\": 1.0}, \"28\": {\"O\": 1.0}, \"29\": {\"O\": 1.0}, \"30\": {\"O\": 1.0}, \"31\": {\"O\": 1.0}}" pbc="T T T"
Sc       7.56037329       4.36498355       3.08650947        0
Sc      11.34055993       6.54747533       4.62976421        1
Ti       0.00000000       0.00000000       0.00000000        2
Ti       3.78018664       2.18249178       1.54325474        3
O       11.34055993       3.69396329       4.59852387        4
O       11.34055993       5.56685098       1.94986070        5
O        9.18234161       2.44791536       1.73093755        6
O        5.93840497       2.44791536       1.73093755        7
O        8.86934602       7.97423135       4.59852387        8
O       13.81177384       7.97423135       4.59852387        9
O       13.81177384       6.99360700       5.98533612       10
O        8.86934602       6.99360700       5.98533612       11
O        6.71112769       6.72818342       1.73093755       12
O        6.71112769       3.87467138       5.76641297       13
O        8.40961888       3.87467138       5.76641297       14
O        8.40961888       6.72818342       1.73093755       15
O       12.96252825       8.46454352       5.98533612       16
O        9.71859161       8.46454352       5.98533612       17
O        7.56037329       5.34560790       5.76641297       18
O        7.56037329       7.21849559       3.11774980       19
O       10.49131434       7.03778750       1.94986070       20
O       10.49131434       4.18427547       5.98533612       21
O       12.18980553       4.18427547       5.98533612       22
O       12.18980553       7.03778750       1.94986070       23
O        5.08915938       3.91885188       1.73093755       24
O       10.03158720       3.91885188       1.73093755       25
O       10.03158720       2.93822754       3.11774980       26
O        5.08915938       2.93822754       3.11774980       27
O        7.56037329       4.36498355       0.77162737       28
O        7.56037329       2.18249178       3.85813684       29
O        9.45046661       5.45622944       3.85813684       30
O        5.67027997       5.45622944       3.85813684       31
