40
Lattice="8.579325590776055 0.0 0.0 -2.8597751969253498 8.088665737660042 0.0 -2.8597751969253498 -4.0443328688300175 7.004990011534395" Properties=species:S:1:pos:R:3:spacegroup_kinds:I:1 spacegroup="P 1" unit_cell=conventional occupancy="_JSON {\"0\": {\"Sc\": 1.0}, \"1\": {\"Sc\": 1.0}, \"2\": {\"Sc\": 1.0}, \"3\": {\"Sc\": 1.0}, \"4\": {\"Sc\": 1.0}, \"5\": {\"Sc\": 1.0}, \"6\": {\"Sc\": 1.0}, \"7\": {\"Sc\": 1.0}, \"8\": {\"Sc\": 1.0}, \"9\": {\"Sc\": 1.0}, \"10\": {\"Sc\": 1.0}, \"11\": {\"Sc\": 1.0}, \"12\": {\"Sc\": 1.0}, \"13\": {\"Sc\": 1.0}, \"14\": {\"Sc\": 1.0}, \"15\": {\"Sc\": 1.0}, \"16\": {\"O\": 1.0}, \"17\": {\"O\": 1.0}, \"18\": {\"O\": 1.0}, \"19\": {\"O\": 1.0}, \"20\": {\"O\": 1.0}, \"21\": {\"O\": 1.0}, \"22\": {\"O\": 1.0}, \"23\": {\"O\": 1.0}, \"24\": {\"O\": 1.0}, \"25\": {\"O\": 1.0}, \"26\": {\"O\": 1.0}, \"27\": {\"O\": 1.0}, \"28\": {\"O\": 1.0}, \"29\": {\"O\": 1.0}, \"30\": {\"O\": 1.0}, \"31\": {\"O\": 1.0}, \"32\": {\"O\": 1.0}, \"33\": {\"O\": 1.0}, \"34\": {\"O\": 1.0}, \"35\": {\"O\": 1.0}, \"36\": {\"O\": 1.0}, \"37\": {\"O\": 1.0}, \"38\": {\"O\": 1.0}, \"39\": {\"O\": 1.0}}" pbc="T T T"
Sc       1.42972012       2.02192959       3.50208478        0
Sc       4.28949532      -0.00023685       0.00041023        1
Sc      -1.43005507      -2.02169274       3.50249501        2
Sc      -1.42938517       4.04433287       0.00000000        3
Sc      -1.63596518       6.78614481       1.75124750        4
Sc      -1.22381002      -2.16788529       6.75259755        5
Sc       4.08358522       0.14571885       3.75488747        6
Sc       6.94336041       1.15680207       1.49885504        7
Sc       1.63596518       4.90969723       2.00363996        8
Sc      -1.22381002       1.30252093       5.25374251        9
Sc       4.08376080       2.74206026       1.75124750       10
Sc      -1.22398560       3.89873817       3.25031759       11
Sc       4.08376080       6.21209400       0.25217741       12
Sc       1.22398560      -0.86548852       5.00156510       13
Sc      -4.08376080       2.88765495       5.50591992       14
Sc       4.49556479      -2.74206026       5.25374251       15
O        3.68358540       4.77796180       5.09036073       16
O        3.27684378      -1.00092775       5.41712429       17
O        0.67604754       4.14605122       6.68301666       18
O        0.82381020       4.04156724       3.82446836       19
O        3.27684378       1.87559593       6.93209402       20
O       -2.18372766       5.73680302       3.57539100       21
O        3.53582273       2.25014436       3.75157236       22
O        0.94284887      -1.98284554       6.75591266       23
O        6.13661898       3.16966469       1.66076172       24
O        3.80262406       4.82004832       1.84173329       25
O       -2.03596499       3.31346957       5.09515094       26
O        0.94284887       1.20713009       5.41233408       27
O       -0.41702523       2.16877974       0.07286954       28
O        5.04352876      -1.69241501       3.42962547       29
O       -0.82386643      -0.73360282       1.91465312       30
O       -0.41702523       5.04521631       1.58784188       31
O        2.18375356      -0.10176884       0.32200788       32
O        2.03590876       0.00277322       3.18048712       33
O        4.89568396       0.73082960       1.90984977       34
O        1.91691330       2.83713853       1.59264524       35
O       -0.67602164       1.79418385       3.25335666       36
O        1.91691330       6.02720127       0.24913834       37
O       -3.27680042       0.87466969       5.34427859       38
O       -0.94286190      -0.77567407       5.16320643       39
