20
Lattice="8.9707525086 0.0 0.0 -4.485376254300001 7.768899563499998 0.0 0.0 0.0 5.6817370992" Properties=species:S:1:pos:R:3:spacegroup_kinds:I:1 spacegroup="P 1" unit_cell=conventional occupancy="_JSON {\"0\": {\"Sc\": 1.0}, \"1\": {\"Sc\": 1.0}, \"2\": {\"Sc\": 1.0}, \"3\": {\"Sc\": 1.0}, \"4\": {\"Sc\": 1.0}, \"5\": {\"Sc\": 1.0}, \"6\": {\"Sc\": 1.0}, \"7\": {\"Sc\": 1.0}, \"8\": {\"Sc\": 1.0}, \"9\": {\"Sc\": 1.0}, \"10\": {\"Sc\": 1.0}, \"11\": {\"Sc\": 1.0}, \"12\": {\"Sc\": 1.0}, \"13\": {\"Sc\": 1.0}, \"14\": {\"P\": 1.0}, \"15\": {\"P\": 1.0}, \"16\": {\"P\": 1.0}, \"17\": {\"P\": 1.0}, \"18\": {\"P\": 1.0}, \"19\": {\"P\": 1.0}}" pbc="T T T"
Sc       6.25324438       3.61031233       0.23122496        0
Sc      -0.00000000       7.22062466       3.07209351        1
Sc       1.76786813       4.15858724       3.07209351        2
Sc       2.71750812       3.61031233       0.23122496        3
Sc       4.48537625       0.54827491       0.23122496        4
Sc      -1.76786813       4.15858724       3.07209351        5
Sc       1.65830450       0.95742255       1.74472053        6
Sc      -0.00000000       1.91484510       4.58558908        7
Sc      -2.82707175       6.81147701       4.58558908        8
Sc       7.31244800       0.95742255       1.74472053        9
Sc       4.48537625       5.85405446       1.74472053       10
Sc       2.82707175       6.81147701       4.58558908       11
Sc      -0.00000000       5.17926638       5.59441682       12
Sc       4.48537625       2.58963319       2.75354827       13
P        1.90748366       6.28055258       1.40538616       14
P        4.48537625       4.79220560       4.24625471       15
P        6.39285991       1.48834698       4.24625471       16
P       -1.90748366       6.28055258       1.40538616       17
P       -0.00000000       2.97669397       1.40538616       18
P        2.57789259       1.48834698       4.24625471       19
