16
Lattice="6.8162183794 0.0 0.0 0.0 8.4124850279 0.0 0.0 0.0 5.7439784288" Properties=species:S:1:pos:R:3:spacegroup_kinds:I:1 spacegroup="P 1" unit_cell=conventional occupancy="_JSON {\"0\": {\"Sc\": 1.0}, \"1\": {\"Sc\": 1.0}, \"2\": {\"Sc\": 1.0}, \"3\": {\"Sc\": 1.0}, \"4\": {\"Sc\": 1.0}, \"5\": {\"Sc\": 1.0}, \"6\": {\"Sc\": 1.0}, \"7\": {\"Sc\": 1.0}, \"8\": {\"Sc\": 1.0}, \"9\": {\"Sc\": 1.0}, \"10\": {\"Sc\": 1.0}, \"11\": {\"Sc\": 1.0}, \"12\": {\"P\": 1.0}, \"13\": {\"P\": 1.0}, \"14\": {\"P\": 1.0}, \"15\": {\"P\": 1.0}}" pbc="T T T"
Sc       2.20797986       7.98984735       3.73497223        0
Sc       2.20797986       4.62888019       3.73497223        1
Sc       5.61608905       7.98984735       4.88099541        2
Sc       5.61608905       4.62888019       4.88099541        3
Sc       4.60823852       3.78360484       2.00900620        4
Sc       4.60823852       0.42263767       2.00900620        5
Sc       1.20012933       3.78360484       0.86298302        6
Sc       1.20012933       0.42263767       0.86298302        7
Sc       3.22628645       6.30936377       0.78816980        8
Sc       6.63439564       6.30936377       2.08381941        9
Sc       3.58993193       2.10312126       4.95580863       10
Sc       0.18182274       2.10312126       3.66015901       11
P        0.84702550       6.30936377       5.33495995       12
P        4.25513469       6.30936377       3.28100769       13
P        5.96919288       2.10312126       0.40901848       14
P        2.56108369       2.10312126       2.46297073       15
