36
Lattice="6.6291438711 0.0 0.0 0.0 6.6291438711 0.0 0.0 0.0 12.2675313653" Properties=species:S:1:pos:R:3:spacegroup_kinds:I:1 spacegroup="P 1" unit_cell=conventional occupancy="_JSON {\"0\": {\"Sc\": 1.0}, \"1\": {\"Sc\": 1.0}, \"2\": {\"Sc\": 1.0}, \"3\": {\"Sc\": 1.0}, \"4\": {\"Sc\": 1.0}, \"5\": {\"Sc\": 1.0}, \"6\": {\"Sc\": 1.0}, \"7\": {\"Sc\": 1.0}, \"8\": {\"V\": 1.0}, \"9\": {\"V\": 1.0}, \"10\": {\"V\": 1.0}, \"11\": {\"V\": 1.0}, \"12\": {\"V\": 1.0}, \"13\": {\"V\": 1.0}, \"14\": {\"V\": 1.0}, \"15\": {\"V\": 1.0}, \"16\": {\"V\": 1.0}, \"17\": {\"V\": 1.0}, \"18\": {\"V\": 1.0}, \"19\": {\"V\": 1.0}, \"20\": {\"Si\": 1.0}, \"21\": {\"Si\": 1.0}, \"22\": {\"Si\": 1.0}, \"23\": {\"Si\": 1.0}, \"24\": {\"Si\": 1.0}, \"25\": {\"Si\": 1.0}, \"26\": {\"Si\": 1.0}, \"27\": {\"Si\": 1.0}, \"28\": {\"Si\": 1.0}, \"29\": {\"Si\": 1.0}, \"30\": {\"Si\": 1.0}, \"31\": {\"Si\": 1.0}, \"32\": {\"Si\": 1.0}, \"33\": {\"Si\": 1.0}, \"34\": {\"Si\": 1.0}, \"35\": {\"Si\": 1.0}}" pbc="T T T"
Sc       3.30269355       5.55018036       0.36895237        0
Sc       6.61726549       4.39353545       8.83169616        1
Sc       1.07896351       3.32645032       5.76481332        2
Sc       4.39353545       6.61726549       3.43583521        3
Sc       3.32645032       1.07896351       6.50271805        4
Sc       0.01187838       2.23560842       2.69793047        5
Sc       5.55018036       3.30269355      11.89857900        6
Sc       2.23560842       0.01187838       9.56960089        7
V        2.27517882       3.26290997      10.71480423        8
V        5.58975076       0.05166197      10.75337566        9
V        3.36623390       4.35396505       7.68649282       10
V        0.05166197       5.58975076       1.51415570       11
V        4.35396505       3.36623390       4.58103854       12
V        1.03939311       6.57748190       4.61960998       13
V        3.26290997       2.27517882       1.55272714       14
V        6.57748190       1.03939311       7.64792139       15
V        2.19751740       4.43162647       3.06688284       16
V        5.51208933       5.51208933       6.13376568       17
V        4.43162647       2.19751740       9.20064852       18
V        1.11705454       1.11705454       0.00000000       19
Si       1.36206433       3.58002824       0.79239095       20
Si       4.67663627       6.36368756       8.40825757       21
Si       3.04911563       5.26707954       5.34137473       22
Si       6.36368756       4.67663627       3.85927379       23
Si       5.26707954       3.04911563       6.92615663       24
Si       1.95250760       0.26545631       2.27449189       25
Si       3.58002824       1.36206433      11.47514042       26
Si       0.26545631       1.95250760       9.99303947       27
Si       0.86300289       5.28132767      11.40825917       28
Si       4.17757483       4.66238813      10.05992072       29
Si       1.34781620       5.76614098       6.99303788       30
Si       4.66238813       4.17757483       2.20761064       31
Si       5.76614098       1.34781620       5.27449349       32
Si       2.45156905       1.96675574       3.92615504       33
Si       5.28132767       0.86300289       0.85927220       34
Si       1.96675574       2.45156905       8.34137633       35
