36
Lattice="11.001211261864636 0.0 0.0 5.500605630932319 9.527328425174234 0.0 5.500605630932319 3.1757761417247456 8.98245138137607" Properties=species:S:1:pos:R:3:spacegroup_kinds:I:1 spacegroup="P 1" unit_cell=conventional occupancy="_JSON {\"0\": {\"Si\": 1.0}, \"1\": {\"Si\": 1.0}, \"2\": {\"Si\": 1.0}, \"3\": {\"Si\": 1.0}, \"4\": {\"Si\": 1.0}, \"5\": {\"Si\": 1.0}, \"6\": {\"Si\": 1.0}, \"7\": {\"Si\": 1.0}, \"8\": {\"Si\": 1.0}, \"9\": {\"Si\": 1.0}, \"10\": {\"Si\": 1.0}, \"11\": {\"Si\": 1.0}, \"12\": {\"Si\": 1.0}, \"13\": {\"Si\": 1.0}, \"14\": {\"Si\": 1.0}, \"15\": {\"Si\": 1.0}, \"16\": {\"Si\": 1.0}, \"17\": {\"Si\": 1.0}, \"18\": {\"Si\": 1.0}, \"19\": {\"Si\": 1.0}, \"20\": {\"Si\": 1.0}, \"21\": {\"Si\": 1.0}, \"22\": {\"Si\": 1.0}, \"23\": {\"Si\": 1.0}, \"24\": {\"Si\": 1.0}, \"25\": {\"Si\": 1.0}, \"26\": {\"Si\": 1.0}, \"27\": {\"Si\": 1.0}, \"28\": {\"Si\": 1.0}, \"29\": {\"Si\": 1.0}, \"30\": {\"Si\": 1.0}, \"31\": {\"Si\": 1.0}, \"32\": {\"Si\": 1.0}, \"33\": {\"Si\": 1.0}, \"34\": {\"Si\": 1.0}, \"35\": {\"Si\": 1.0}}" pbc="T T T"
Si      14.04827181       8.11077351       0.47813545        0
Si       7.95415071       8.11077351       0.47813545        1
Si       7.95415071       3.15438160       7.48753212        2
Si      14.04827181       3.15438160       7.48753212        3
Si      12.20945559       7.04913247       8.71636115        4
Si      12.20945559      10.56757493       3.74053211        5
Si       9.79296694      10.56757493       3.74053211        6
Si       9.79296694       7.04913247       8.71636115        7
Si      11.00121126       2.83310982       0.47813545        8
Si      11.00121126       1.39516037       2.51170307        9
Si      15.25651614       5.28991124       3.74053211       10
Si       6.74590639       5.28991124       3.74053211       11
Si       6.70884995       5.31130578       7.48753212       12
Si       6.70884995       8.82974824       2.51170307       13
Si      15.29357257       8.82974824       2.51170307       14
Si      15.29357257       5.31130578       7.48753212       15
Si      14.04827181       3.19717068       3.74053211       16
Si       7.95415071       3.19717068       3.74053211       17
Si       7.95415071       4.59233105       1.76747739       18
Si      14.04827181       4.59233105       1.76747739       19
Si       9.75591051      10.58896947       7.48753212       20
Si      12.24651202      10.58896947       7.48753212       21
Si      11.00121126       4.95639191       8.71636115       22
Si      11.00121126       9.86999474       1.76747739       23
Si      16.50181689       9.52732843       8.08707894       24
Si      16.50181689      10.80034729       6.28675840       25
Si      12.10367794       6.98806172       4.94130583       26
Si       9.89874459       6.98806172       4.94130583       27
Si      17.60428357       8.89081899       6.28675840       28
Si      15.39935022       8.89081899       6.28675840       29
Si      11.00121126       5.07853342       4.94130583       30
Si      11.00121126       6.35155228       3.14098528       31
Si      11.00121126       6.35155228       1.12280642       32
Si      11.00121126       3.17577614       5.61403211       33
Si      13.75151408       7.93944035       5.61403211       34
Si       8.25090845       7.93944035       5.61403211       35
