29
Lattice="8.320414616461933 0.0 0.0 4.160207308230966 7.205690427875392 0.0 4.160207308230966 2.401896809291797 6.793590086242245" Properties=species:S:1:pos:R:3:spacegroup_kinds:I:1 spacegroup="P 1" unit_cell=conventional occupancy="_JSON {\"0\": {\"Ti\": 1.0}, \"1\": {\"Ti\": 1.0}, \"2\": {\"Ti\": 1.0}, \"3\": {\"Ti\": 1.0}, \"4\": {\"Ti\": 1.0}, \"5\": {\"Ti\": 1.0}, \"6\": {\"Al\": 1.0}, \"7\": {\"Al\": 1.0}, \"8\": {\"Al\": 1.0}, \"9\": {\"Al\": 1.0}, \"10\": {\"Al\": 1.0}, \"11\": {\"Al\": 1.0}, \"12\": {\"Al\": 1.0}, \"13\": {\"Al\": 1.0}, \"14\": {\"Al\": 1.0}, \"15\": {\"Al\": 1.0}, \"16\": {\"Al\": 1.0}, \"17\": {\"Al\": 1.0}, \"18\": {\"Al\": 1.0}, \"19\": {\"Al\": 1.0}, \"20\": {\"Al\": 1.0}, \"21\": {\"Al\": 1.0}, \"22\": {\"Co\": 1.0}, \"23\": {\"Co\": 1.0}, \"24\": {\"Co\": 1.0}, \"25\": {\"Co\": 1.0}, \"26\": {\"Co\": 1.0}, \"27\": {\"Co\": 1.0}, \"28\": {\"Co\": 1.0}}" pbc="T T T"
Ti       8.32041462       6.59976071       4.66673555        0
Ti       9.87576774       3.90581007       4.66673555        1
Ti       9.87576774       5.70177716       2.12685454        2
Ti       6.76506149       3.90581007       4.66673555        3
Ti       6.76506149       5.70177716       2.12685454        4
Ti       8.32041462       3.00782653       2.12685454        5
Al      14.66453296       8.46657205       5.98677051        6
Al       4.16020731       2.40189681       4.37313136        7
Al       4.16020731       4.92366006       0.80681957        8
Al      10.29671089       8.46657205       5.98677051        9
Al       6.34411834       1.14101518       0.80681957       10
Al      12.48062192       4.68392718       5.98677051       11
Al      12.48062192       7.20569043       2.42045872       12
Al       1.97629627       1.14101518       0.80681957       13
Al      10.99150453       6.34594810       4.48726294       14
Al       8.32041462       4.80379362       6.66819872       15
Al       8.32041462       7.88810258       2.30632715       16
Al       5.64932470       6.34594810       4.48726294       17
Al      10.99150453       3.26163914       2.30632715       18
Al       8.32041462       1.71948465       4.48726294       19
Al       8.32041462       4.80379362       0.12539137       20
Al       5.64932470       3.26163914       2.30632715       21
Co       8.32041462       2.40189681       6.79359009       22
Co      12.48062192       4.80379362       3.39679504       23
Co       6.24031096       6.00474202       6.79359009       24
Co      10.40051827       8.40663883       3.39679504       25
Co       2.08010365       1.20094840       3.39679504       26
Co      10.40051827       6.00474202       6.79359009       27
Co       0.00000000       0.00000000       0.00000000       28
