9
Lattice="6.6342643085 0.0 0.0 -3.317132154299998 5.7454414266 0.0 0.0 0.0 3.3408770093" Properties=species:S:1:pos:R:3:spacegroup_kinds:I:1 spacegroup="P 1" unit_cell=conventional occupancy="_JSON {\"0\": {\"Ti\": 1.0}, \"1\": {\"Ti\": 1.0}, \"2\": {\"Ti\": 1.0}, \"3\": {\"Cr\": 1.0}, \"4\": {\"Cr\": 1.0}, \"5\": {\"Cr\": 1.0}, \"6\": {\"As\": 1.0}, \"7\": {\"As\": 1.0}, \"8\": {\"As\": 1.0}}" pbc="T T T"
Ti       1.33686370       2.31551586       0.00000000        0
Ti       4.65399586       3.42992557       0.00000000        1
Ti       3.96053690       0.00000000       0.00000000        2
Cr       2.46529995       4.27002477       1.67043850        3
Cr      -0.85183220       1.47541666       1.67043850        4
Cr       1.70366441       0.00000000       1.67043850        5
As       0.00000000       3.83029428       1.67043850        6
As       3.31713215       1.91514714       1.67043850        7
As       0.00000000       0.00000000       0.00000000        8
