20
Lattice="6.611460743142255 0.0 0.0 -1.2408192656354575 6.493980343990812 0.0 -1.240819265514169 -1.5003526030255165 6.318284796999704" Properties=species:S:1:pos:R:3:spacegroup_kinds:I:1 spacegroup="P 1" unit_cell=conventional occupancy="_JSON {\"0\": {\"K\": 1.0}, \"1\": {\"K\": 1.0}, \"2\": {\"K\": 1.0}, \"3\": {\"B\": 1.0}, \"4\": {\"B\": 1.0}, \"5\": {\"B\": 1.0}, \"6\": {\"B\": 1.0}, \"7\": {\"B\": 1.0}, \"8\": {\"B\": 1.0}, \"9\": {\"Br\": 1.0}, \"10\": {\"O\": 1.0}, \"11\": {\"O\": 1.0}, \"12\": {\"O\": 1.0}, \"13\": {\"O\": 1.0}, \"14\": {\"O\": 1.0}, \"15\": {\"O\": 1.0}, \"16\": {\"O\": 1.0}, \"17\": {\"O\": 1.0}, \"18\": {\"O\": 1.0}, \"19\": {\"O\": 1.0}}" pbc="T T T"
K        5.13757727       2.52426459       3.19387496        0
K        1.51520521       5.52003307       3.19387496        1
K        1.51520521       1.83212991       6.10859251        2
B        0.29960497       4.77799591       6.04545242        3
B        4.63686575       1.19100128       6.04545242        4
B        4.63686575       5.60672597       2.55550443        5
B        5.19318403       0.38351981       0.48525591        6
B       -0.59793635       5.17288314       0.48525591        7
B       -0.59793635      -0.72300244       5.14504235        8
Br       1.84712566       2.23347579       2.82594876        9
O        0.86584820       5.31958791       0.43771994       10
O        0.86584820      -0.80314661       5.27679541       11
O        5.06256325       1.84882718       0.43771994       12
O        5.06256325      -0.00127093       1.89993660       13
O       -0.95137515       4.97236700       1.89993660       14
O       -0.95137515       0.69973060       5.27679541       15
O        1.67985552       4.73662341       5.99310506       16
O        4.33718710       2.53896120       5.99310506       17
O        4.33718710       5.24436567       3.85490091       18
O        4.10107832       4.95887170       6.27430904       19
