7
Lattice="9.143971102470386 0.0 0.0 6.165860885446539 6.752360110667523 0.0 -7.654915993958462 -3.3761800553337613 3.689969767114488" Properties=species:S:1:pos:R:3:spacegroup_kinds:I:1 spacegroup="P 1" unit_cell=conventional occupancy="_JSON {\"0\": {\"K\": 1.0}, \"1\": {\"K\": 1.0}, \"2\": {\"K\": 1.0}, \"3\": {\"K\": 1.0}, \"4\": {\"Br\": 1.0}, \"5\": {\"Br\": 1.0}, \"6\": {\"O\": 1.0}}" pbc="T T T"
K       12.94907601       5.71115505       0.00000000        0
K        2.36075598       1.04120506       0.00000000        1
K        0.74452755      -1.68809003       1.84498488        2
K       -0.74452755       1.68809003       1.84498488        3
Br       9.87636994       4.35594633       0.00000000        4
Br       5.43346205       2.39641378       0.00000000        5
O        0.00000000       0.00000000       0.00000000        6
