20
Lattice="5.4776693546843 0.0 0.0 0.0 2.7887293406017 0.0 0.0 0.0 11.459340216279" Properties=species:S:1:pos:R:3:spacegroup_kinds:I:1 spacegroup="P 1" unit_cell=conventional occupancy="_JSON {\"0\": {\"Cr\": 1.0}, \"1\": {\"Cr\": 1.0}, \"2\": {\"Cr\": 1.0}, \"3\": {\"Cr\": 1.0}, \"4\": {\"Cr\": 1.0}, \"5\": {\"Cr\": 1.0}, \"6\": {\"Cr\": 1.0}, \"7\": {\"Cr\": 1.0}, \"8\": {\"Cr\": 1.0}, \"9\": {\"Cr\": 1.0}, \"10\": {\"Cr\": 1.0}, \"11\": {\"Cr\": 1.0}, \"12\": {\"C\": 1.0}, \"13\": {\"C\": 1.0}, \"14\": {\"C\": 1.0}, \"15\": {\"C\": 1.0}, \"16\": {\"C\": 1.0}, \"17\": {\"C\": 1.0}, \"18\": {\"C\": 1.0}, \"19\": {\"C\": 1.0}}" pbc="T T T"
Cr       3.46235006       2.09154701       4.94448579        0
Cr       0.72351538       2.09154701       0.78518431        1
Cr       2.01531929       0.69718234       6.51485442        2
Cr       4.75415397       0.69718234      10.67415590        3
Cr       5.39352849       2.09154701       6.83613513        4
Cr       2.65469381       2.09154701      10.35287520        5
Cr       0.08414086       0.69718234       4.62320509        6
Cr       2.82297554       0.69718234       1.10646502        7
Cr       4.45338531       2.09154701       2.59197180        8
Cr       1.71455063       2.09154701       3.13769831        9
Cr       1.02428405       0.69718234       8.86736842       10
Cr       3.76311872       0.69718234       8.32164191       11
C        4.17116997       2.09154701       0.55414943       12
C        1.43233529       2.09154701       5.17552067       13
C        1.30649939       0.69718234      10.90519078       14
C        4.04533406       0.69718234       6.28381954       15
C        2.20117043       2.09154701       8.05221252       16
C        4.94000511       2.09154701       9.13679780       17
C        3.27649892       0.69718234       3.40712769       18
C        0.53766425       0.69718234       2.32254242       19
