9
Lattice="5.6773330130796 0.0 0.0 -2.838666506489828 4.916714615052784 0.0 0.0 0.0 5.1268713949866" Properties=species:S:1:pos:R:3:spacegroup_kinds:I:1 spacegroup="P 1" unit_cell=conventional occupancy="_JSON {\"0\": {\"Ca\": 1.0}, \"1\": {\"Cl\": 1.0}, \"2\": {\"Cl\": 1.0}, \"3\": {\"O\": 1.0}, \"4\": {\"O\": 1.0}, \"5\": {\"O\": 1.0}, \"6\": {\"O\": 1.0}, \"7\": {\"O\": 1.0}, \"8\": {\"O\": 1.0}}" pbc="T T T"
Ca       0.00000000       0.00000000       0.00000000        0
Cl      -0.00000000       3.27780974       1.05210321        1
Cl       2.83866651       1.63890487       4.07476819        2
O        2.40014844       4.15717904       2.56343570        3
O        5.23881494       0.75953558       2.56343570        4
O        0.87703614       0.00000000       2.56343570        5
O        1.21680284       2.10756435       0.00000000        6
O       -1.62186366       2.80915027       0.00000000        7
O        0.40506082       4.91671462       0.00000000        8
