6
Lattice="4.9210045169632 0.0 0.0 -2.4605022584815983 4.2617149237500005 0.0 0.0 0.0 3.9219714283478" Properties=species:S:1:pos:R:3:spacegroup_kinds:I:1 spacegroup="P 1" unit_cell=conventional occupancy="_JSON {\"0\": {\"Ca\": 1.0}, \"1\": {\"Ni\": 1.0}, \"2\": {\"Ni\": 1.0}, \"3\": {\"Ni\": 1.0}, \"4\": {\"Ni\": 1.0}, \"5\": {\"Ni\": 1.0}}" pbc="T T T"
Ca       0.00000000       0.00000000       0.00000000        0
Ni       1.23025113       2.13085746       1.96098571        1
Ni       2.46050226       0.00000000       1.96098571        2
Ni      -1.23025113       2.13085746       1.96098571        3
Ni       0.00000000       2.84114328       0.00000000        4
Ni       2.46050226       1.42057164       0.00000000        5
