24
Lattice="6.797922641694238 0.0 0.0 0.0 7.2166534497 0.0 -5.075270392863704 0.0 6.717585919283336" Properties=species:S:1:pos:R:3:spacegroup_kinds:I:1 spacegroup="P 1" unit_cell=conventional occupancy="_JSON {\"0\": {\"Ca\": 1.0}, \"1\": {\"Ca\": 1.0}, \"2\": {\"Ca\": 1.0}, \"3\": {\"Ca\": 1.0}, \"4\": {\"Se\": 1.0}, \"5\": {\"Se\": 1.0}, \"6\": {\"Se\": 1.0}, \"7\": {\"Se\": 1.0}, \"8\": {\"O\": 1.0}, \"9\": {\"O\": 1.0}, \"10\": {\"O\": 1.0}, \"11\": {\"O\": 1.0}, \"12\": {\"O\": 1.0}, \"13\": {\"O\": 1.0}, \"14\": {\"O\": 1.0}, \"15\": {\"O\": 1.0}, \"16\": {\"O\": 1.0}, \"17\": {\"O\": 1.0}, \"18\": {\"O\": 1.0}, \"19\": {\"O\": 1.0}, \"20\": {\"O\": 1.0}, \"21\": {\"O\": 1.0}, \"22\": {\"O\": 1.0}, \"23\": {\"O\": 1.0}}" pbc="T T T"
Ca      -2.64070231       4.66458162       5.24070252        0
Ca      -0.10306711       6.16039856       1.88190956        1
Ca       4.36335456       2.55207183       1.47688340        2
Ca       1.82571936       1.05625489       4.83567636        3
Se       0.61339904       4.77063247       5.41113947        4
Se       3.15103424       6.05434771       2.05234651        5
Se       1.10925321       2.44602098       1.30644645        6
Se      -1.42838199       1.16230574       4.66523941        7
O        1.77919431       3.62283665       5.08664129        8
O        4.31682951       7.20214352       1.72784833        9
O       -0.05654206       3.59381680       1.63094463       10
O       -2.59417726       0.01450993       4.98973759       11
O        1.44224658       6.09589987       6.01547311       12
O        3.97988178       4.72908031       2.65668015       13
O        0.28040567       1.12075358       0.70211281       14
O       -2.25722953       2.48757314       4.06090577       15
O       -0.50967106       4.31987621       6.56291212       16
O        2.02796414       6.50510397       3.20411916       17
O        2.23232331       2.89677724       0.15467380       18
O       -0.30531189       0.71154948       3.51346676       19
O       -0.37827311       5.11170398       4.11855709       20
O        2.15936208       5.71327619       0.75976413       21
O        2.10092536       2.10494947       2.59902883       22
O       -0.43670984       1.50337726       5.95782179       23
