8
Lattice="3.3240009571349676 0.0 0.0 0.0008803989879679348 3.3240008405431856 0.0 0.0 0.0 17.073510733" Properties=species:S:1:pos:R:3:spacegroup_kinds:I:1 spacegroup="P 1" unit_cell=conventional occupancy="_JSON {\"0\": {\"Ca\": 1.0}, \"1\": {\"Ca\": 1.0}, \"2\": {\"Ca\": 1.0}, \"3\": {\"Ca\": 1.0}, \"4\": {\"O\": 1.0}, \"5\": {\"O\": 1.0}, \"6\": {\"O\": 1.0}, \"7\": {\"O\": 1.0}}" pbc="T T T"
Ca       0.22444038       3.10038164       3.07216144        0
Ca       3.10044098       0.22361920      14.00134930        1
Ca       1.43888070       1.88561962      11.60891680        2
Ca       1.88600065       1.43838122       5.46459393        3
O        0.22456979       3.10025219       5.42912574        4
O        3.10031157       0.22374865      11.64438499        5
O        1.43875129       1.88574907      13.96588111        6
O        1.88613007       1.43825177       3.10762963        7
