18
Lattice="6.9200993844527 0.0 0.0 -3.460049692276298 5.992981863605101 0.0 0.0 0.0 4.7889275290679" Properties=species:S:1:pos:R:3:spacegroup_kinds:I:1 spacegroup="P 1" unit_cell=conventional occupancy="_JSON {\"0\": {\"Cr\": 1.0}, \"1\": {\"Cr\": 1.0}, \"2\": {\"Cr\": 1.0}, \"3\": {\"Cr\": 1.0}, \"4\": {\"Cr\": 1.0}, \"5\": {\"Cr\": 1.0}, \"6\": {\"Cr\": 1.0}, \"7\": {\"Cr\": 1.0}, \"8\": {\"Cr\": 1.0}, \"9\": {\"Cr\": 1.0}, \"10\": {\"Si\": 1.0}, \"11\": {\"Si\": 1.0}, \"12\": {\"Si\": 1.0}, \"13\": {\"Si\": 1.0}, \"14\": {\"Si\": 1.0}, \"15\": {\"Si\": 1.0}, \"16\": {\"C\": 1.0}, \"17\": {\"C\": 1.0}}" pbc="T T T"
Cr       3.46004969       1.99766062       2.39446376        0
Cr       0.00000000       3.99532124       2.39446376        1
Cr       0.00000000       3.99532124       0.00000000        2
Cr       3.46004969       1.99766062       0.00000000        3
Cr       2.66558960       4.61693663       1.19723188        4
Cr       1.58892018       0.00000000       1.19723188        5
Cr      -0.79446009       1.37604524       1.19723188        6
Cr       0.79446009       1.37604524       3.59169565        7
Cr       5.33117921       0.00000000       3.59169565        8
Cr      -2.66558960       4.61693663       3.59169565        9
Si       1.40289728       2.42988937       1.19723188       10
Si       4.11430482       0.00000000       1.19723188       11
Si      -2.05715241       3.56309249       1.19723188       12
Si       2.05715241       3.56309249       3.59169565       13
Si       2.80579456       0.00000000       3.59169565       14
Si      -1.40289728       2.42988937       3.59169565       15
C        0.00000000       0.00000000       2.39446376       16
C        0.00000000       0.00000000       0.00000000       17
