20
Lattice="4.821602836187539 0.0 0.0 0.0 5.3121579945809 0.0 -2.7333341058015748 0.0 13.013674685697882" Properties=species:S:1:pos:R:3:spacegroup_kinds:I:1 spacegroup="P 1" unit_cell=conventional occupancy="_JSON {\"0\": {\"K\": 1.0}, \"1\": {\"K\": 1.0}, \"2\": {\"K\": 1.0}, \"3\": {\"K\": 1.0}, \"4\": {\"C\": 1.0}, \"5\": {\"C\": 1.0}, \"6\": {\"C\": 1.0}, \"7\": {\"C\": 1.0}, \"8\": {\"O\": 1.0}, \"9\": {\"O\": 1.0}, \"10\": {\"O\": 1.0}, \"11\": {\"O\": 1.0}, \"12\": {\"O\": 1.0}, \"13\": {\"O\": 1.0}, \"14\": {\"O\": 1.0}, \"15\": {\"O\": 1.0}, \"16\": {\"O\": 1.0}, \"17\": {\"O\": 1.0}, \"18\": {\"O\": 1.0}, \"19\": {\"O\": 1.0}}" pbc="T T T"
K       -0.20544598       5.30808953       4.99243692        0
K       -1.57211304       2.66014746      11.49927427        1
K        3.66038177       2.65201053       1.51440042        2
K        2.29371471       0.00406846       8.02123776        3
C        2.45856086       2.65329321       5.14385739        4
C        1.09189380       0.00278579      11.65069474        5
C        0.99637493       5.30937221       1.36297995        6
C       -0.37029213       2.65886479       7.86981729        7
O        3.36438381       2.65103744       4.24476453        8
O        1.99771676       0.00504156      10.75160187        9
O        0.09055197       5.30711644       2.26207282       10
O       -1.27611508       2.66112055       8.76891016       11
O        2.01445673       1.53754532       5.59182073       12
O        0.64778967       1.11853368      12.09865808       13
O        1.44047906       4.19362432       0.91501661       14
O        0.07381200       3.77461267       7.42185395       15
O        1.43277547       1.11510732       0.91266341       16
O        0.06610842       1.54097168       7.41950076       17
O        2.02216031       3.77118632       5.59417393       18
O        0.65549326       4.19705068      12.10101127       19
