12
Lattice="5.709268102708177 0.0 0.0 2.1780906890880045 5.2774675004882 0.0 2.1780906890537226 1.4573703476698654 5.0722514615096035" Properties=species:S:1:pos:R:3:spacegroup_kinds:I:1 spacegroup="P 1" unit_cell=conventional occupancy="_JSON {\"0\": {\"Cu\": 1.0}, \"1\": {\"Cu\": 1.0}, \"2\": {\"Cu\": 1.0}, \"3\": {\"Ni\": 1.0}, \"4\": {\"Cl\": 1.0}, \"5\": {\"Cl\": 1.0}, \"6\": {\"O\": 1.0}, \"7\": {\"O\": 1.0}, \"8\": {\"O\": 1.0}, \"9\": {\"O\": 1.0}, \"10\": {\"O\": 1.0}, \"11\": {\"O\": 1.0}}" pbc="T T T"
Cu       3.26713603       4.09610410       5.07225146        0
Cu       1.08904534       0.72868517       2.53612573        1
Cu       5.03272474       1.45737035       5.07225146        2
Ni       0.00000000       0.00000000       0.00000000        3
Cl       7.00319152       4.68586717       3.52909709        4
Cl       3.06225796       2.04897067       1.54315438        5
O        3.60170345       2.40991610       4.24091372        6
O        3.60170345       4.74150169       1.14507925        7
O        4.30850179       5.21442366       3.92717221        8
O        6.46374603       1.99333616       3.92717221        9
O        6.46374603       4.32492175       0.83133775       10
O        5.75694769       1.52041419       1.14507925       11
