10
Lattice="9.011219526384709 0.0 0.0 0.9130692316856543 6.241096907055446 0.0 8.098150294699053 3.8715865540606567 4.8951106379400455" Properties=species:S:1:pos:R:3:spacegroup_kinds:I:1 spacegroup="P 1" unit_cell=conventional occupancy="_JSON {\"0\": {\"S\": 1.0}, \"1\": {\"S\": 1.0}, \"2\": {\"Cl\": 1.0}, \"3\": {\"Cl\": 1.0}, \"4\": {\"Cl\": 1.0}, \"5\": {\"Cl\": 1.0}, \"6\": {\"O\": 1.0}, \"7\": {\"O\": 1.0}, \"8\": {\"O\": 1.0}, \"9\": {\"O\": 1.0}}" pbc="T T T"
S        8.09906269       3.87277043       4.89266490        0
S        4.50652215       2.52935474       1.22133192        1
Cl      12.28004612       3.29407849       2.65219588        2
Cl      10.33588101       6.76584807       1.92661718        3
Cl       5.83027125       6.93263169       2.00734989        4
Cl       8.68750559       4.64561729       0.28537327        5
O        5.72172241       3.29759220       1.23375769        6
O       16.33660322       4.93197989       4.30397909        7
O        3.73284316       2.33401425       0.02537299        8
O       10.22733217       9.62755485       4.29781756        9
