20
Lattice="7.2366771246012 0.0 0.0 0.0 7.2366771246012 0.0 0.0 0.0 7.2366771246012" Properties=species:S:1:pos:R:3:spacegroup_kinds:I:1 spacegroup="P 1" unit_cell=conventional occupancy="_JSON {\"0\": {\"Na\": 1.0}, \"1\": {\"Na\": 1.0}, \"2\": {\"Na\": 1.0}, \"3\": {\"Na\": 1.0}, \"4\": {\"Cl\": 1.0}, \"5\": {\"Cl\": 1.0}, \"6\": {\"Cl\": 1.0}, \"7\": {\"Cl\": 1.0}, \"8\": {\"O\": 1.0}, \"9\": {\"O\": 1.0}, \"10\": {\"O\": 1.0}, \"11\": {\"O\": 1.0}, \"12\": {\"O\": 1.0}, \"13\": {\"O\": 1.0}, \"14\": {\"O\": 1.0}, \"15\": {\"O\": 1.0}, \"16\": {\"O\": 1.0}, \"17\": {\"O\": 1.0}, \"18\": {\"O\": 1.0}, \"19\": {\"O\": 1.0}}" pbc="T T T"
Na       6.00690419       6.00690419       6.00690419        0
Na       2.38856563       4.84811150       1.22977294        1
Na       1.22977294       2.38856563       4.84811150        2
Na       4.84811150       1.22977294       2.38856563        3
Cl       2.39620197       2.39620197       2.39620197        4
Cl       6.01454053       1.22213660       4.84047516        5
Cl       4.84047516       6.01454053       1.22213660        6
Cl       1.22213660       4.84047516       6.01454053        7
O        5.10007523       4.08326234       4.05818190        8
O        4.08326234       4.05818190       5.10007523        9
O        4.05818190       5.10007523       4.08326234       10
O        1.48173667       6.77175335       3.17849522       11
O        0.46492377       6.79683378       2.13660190       12
O        0.43984334       5.75494046       3.15341479       13
O        2.13660190       0.46492377       6.79683378       14
O        3.15341479       0.43984334       5.75494046       15
O        3.17849522       1.48173667       6.77175335       16
O        5.75494046       3.15341479       0.43984334       17
O        6.77175335       3.17849522       1.48173667       18
O        6.79683378       2.13660190       0.46492377       19
