20
Lattice="7.3337274908 0.0 0.0 0.0 7.3337274908 0.0 0.0 0.0 7.3337274908" Properties=species:S:1:pos:R:3:spacegroup_kinds:I:1 spacegroup="P 1" unit_cell=conventional occupancy="_JSON {\"0\": {\"Na\": 1.0}, \"1\": {\"Na\": 1.0}, \"2\": {\"Na\": 1.0}, \"3\": {\"Na\": 1.0}, \"4\": {\"Cl\": 1.0}, \"5\": {\"Cl\": 1.0}, \"6\": {\"Cl\": 1.0}, \"7\": {\"Cl\": 1.0}, \"8\": {\"O\": 1.0}, \"9\": {\"O\": 1.0}, \"10\": {\"O\": 1.0}, \"11\": {\"O\": 1.0}, \"12\": {\"O\": 1.0}, \"13\": {\"O\": 1.0}, \"14\": {\"O\": 1.0}, \"15\": {\"O\": 1.0}, \"16\": {\"O\": 1.0}, \"17\": {\"O\": 1.0}, \"18\": {\"O\": 1.0}, \"19\": {\"O\": 1.0}}" pbc="T T T"
Na       4.39400065       0.72713690       2.93972684        0
Na       0.72713690       2.93972684       4.39400065        1
Na       2.93972684       4.39400065       0.72713690        2
Na       6.60659059       6.60659059       6.60659059        3
Cl       1.90585491       5.57271866       5.42787258        4
Cl       5.57271866       5.42787258       1.90585491        5
Cl       5.42787258       1.90585491       5.57271866        6
Cl       1.76100883       1.76100883       1.76100883        7
O        1.71093281       6.15020767       6.81658977        8
O        5.37779655       4.85038356       0.51713772        9
O        2.48334393       4.18400147       5.62279468       10
O        6.15020767       6.81658977       1.71093281       11
O        0.51713772       5.37779655       4.85038356       12
O        4.18400147       5.62279468       2.48334393       13
O        5.62279468       2.48334393       4.18400147       14
O        1.95593094       1.18351982       3.14972602       15
O        4.85038356       0.51713772       5.37779655       16
O        1.18351982       3.14972602       1.95593094       17
O        6.81658977       1.71093281       6.15020767       18
O        3.14972602       1.95593094       1.18351982       19
