6
Lattice="3.2595134243 0.0 0.0 0.0 4.0093857084 0.0 0.0 0.0 8.5408316542" Properties=species:S:1:pos:R:3:spacegroup_kinds:I:1 spacegroup="P 1" unit_cell=conventional occupancy="_JSON {\"0\": {\"Ti\": 1.0}, \"1\": {\"Ti\": 1.0}, \"2\": {\"Cl\": 1.0}, \"3\": {\"Cl\": 1.0}, \"4\": {\"O\": 1.0}, \"5\": {\"O\": 1.0}}" pbc="T T T"
Ti       0.00000000       2.00469285       0.70444155        0
Ti       1.62975671       0.00000000       7.83639011        1
Cl       0.00000000       0.00000000       6.04449925        2
Cl       1.62975671       2.00469285       2.49633241        3
O        0.00000000       0.00000000       0.59759064        4
O        1.62975671       2.00469285       7.94324102        5
