12
Lattice="11.697745616802 0.0 0.0 0.0 4.0548332805933 0.0 0.0 0.0 4.0925545268119" Properties=species:S:1:pos:R:3:spacegroup_kinds:I:1 spacegroup="P 1" unit_cell=conventional occupancy="_JSON {\"0\": {\"C\": 1.0}, \"1\": {\"C\": 1.0}, \"2\": {\"C\": 1.0}, \"3\": {\"C\": 1.0}, \"4\": {\"N\": 1.0}, \"5\": {\"N\": 1.0}, \"6\": {\"N\": 1.0}, \"7\": {\"N\": 1.0}, \"8\": {\"O\": 1.0}, \"9\": {\"O\": 1.0}, \"10\": {\"O\": 1.0}, \"11\": {\"O\": 1.0}}" pbc="T T T"
C       10.55203280       1.01370832       0.54469833        0
C        4.70316000       1.01370832       1.50157894        1
C        1.14571281       3.04112496       3.54785620        2
C        6.99458562       3.04112496       2.59097559        3
N       11.62606137       1.01370832       3.98923612        4
N        5.77718857       1.01370832       2.14959568        5
N        0.07168424       3.04112496       0.10331841        6
N        5.92055705       3.04112496       1.94295885        7
O        9.54804032       1.01370832       1.13960367        8
O        3.69916751       1.01370832       0.90667359        9
O        2.14970530       3.04112496       2.95295086       10
O        7.99857811       3.04112496       3.18588093       11
