7
Lattice="6.275664893380585 0.0 0.0 -5.252939848715331 3.4337432635227847 0.0 -2.8911303394193033 0.8611102166334268 5.35792961566655" Properties=species:S:1:pos:R:3:spacegroup_kinds:I:1 spacegroup="P 1" unit_cell=conventional occupancy="_JSON {\"0\": {\"Co\": 1.0}, \"1\": {\"Co\": 1.0}, \"2\": {\"Ni\": 1.0}, \"3\": {\"Se\": 1.0}, \"4\": {\"Se\": 1.0}, \"5\": {\"Se\": 1.0}, \"6\": {\"Se\": 1.0}}" pbc="T T T"
Co       1.18802140       1.51533182       3.86613352        0
Co      -3.05642670       2.77952166       1.49179609        1
Ni       0.00000000       0.00000000       0.00000000        2
Se       3.26785643       0.89586227       2.89257868        3
Se      -5.13626172       3.39899121       2.46535094        4
Se      -0.73135589       2.08700974       5.23947864        5
Se      -1.13704941       2.20784374       0.11845097        6
