8
Lattice="4.9477437699538 0.0 0.0 -2.473871884825729 4.284871796193076 0.0 0.0 0.0 3.9456283415205" Properties=species:S:1:pos:R:3:spacegroup_kinds:I:1 spacegroup="P 1" unit_cell=conventional occupancy="_JSON {\"0\": {\"Cr\": 1.0}, \"1\": {\"Cr\": 1.0}, \"2\": {\"Co\": 1.0}, \"3\": {\"Co\": 1.0}, \"4\": {\"Co\": 1.0}, \"5\": {\"Co\": 1.0}, \"6\": {\"Co\": 1.0}, \"7\": {\"Co\": 1.0}}" pbc="T T T"
Cr       0.00000000       2.85658120       0.98640709        0
Cr       2.47387188       1.42829060       2.95922126        1
Co       3.71685829       0.71065206       0.98640709        2
Co       2.47387188       2.86356767       0.98640709        3
Co       1.23088548       0.71065206       0.98640709        4
Co      -1.24298640       3.57421973       2.95922126        5
Co       0.00000000       1.42130413       2.95922126        6
Co       1.24298640       3.57421973       2.95922126        7
