8
Lattice="5.094692223635 0.0 0.0 -2.5473461118175003 4.412132890117599 0.0 0.0 0.0 4.0723160047311" Properties=species:S:1:pos:R:3:spacegroup_kinds:I:1 spacegroup="P 1" unit_cell=conventional occupancy="_JSON {\"0\": {\"Ti\": 1.0}, \"1\": {\"Ti\": 1.0}, \"2\": {\"Co\": 1.0}, \"3\": {\"Co\": 1.0}, \"4\": {\"Co\": 1.0}, \"5\": {\"Co\": 1.0}, \"6\": {\"Co\": 1.0}, \"7\": {\"Co\": 1.0}}" pbc="T T T"
Ti      -0.00000000       2.94142193       1.01807900        0
Ti       2.54734611       1.47071096       3.05423700        1
Co       3.86622558       0.70925555       1.01807900        2
Co       2.54734611       2.99362180       1.01807900        3
Co       1.22846664       0.70925555       1.01807900        4
Co      -1.31887947       3.70287734       3.05423700        5
Co      -0.00000000       1.41851109       3.05423700        6
Co       1.31887947       3.70287734       3.05423700        7
