17
Lattice="6.788608403127296 0.0 0.0 -2.2628694677090975 6.400361382228389 0.0 -2.2628694677090975 -3.2001806911141912 5.5428755504106695" Properties=species:S:1:pos:R:3:spacegroup_kinds:I:1 spacegroup="P 1" unit_cell=conventional occupancy="_JSON {\"0\": {\"Ge\": 1.0}, \"1\": {\"Ge\": 1.0}, \"2\": {\"Ge\": 1.0}, \"3\": {\"Ge\": 1.0}, \"4\": {\"Ge\": 1.0}, \"5\": {\"Ge\": 1.0}, \"6\": {\"Sc\": 1.0}, \"7\": {\"Sc\": 1.0}, \"8\": {\"Sc\": 1.0}, \"9\": {\"Sc\": 1.0}, \"10\": {\"Co\": 1.0}, \"11\": {\"Co\": 1.0}, \"12\": {\"Co\": 1.0}, \"13\": {\"Co\": 1.0}, \"14\": {\"Co\": 1.0}, \"15\": {\"Co\": 1.0}, \"16\": {\"Co\": 1.0}}" pbc="T T T"
Ge      -3.09186450       2.18627836       3.78674519        0
Ge       3.09186450      -2.18627836       3.78674519        1
Ge       3.09186450       4.37255671       0.00000000        2
Ge       1.43387443       2.02780467       0.00000000        3
Ge       1.43387443      -1.01390233       1.75613036        4
Ge      -1.43387443       1.01390233       1.75613036        5
Sc       1.13143473       1.60009035       2.77143778        6
Sc      -1.13143473      -1.60009035       2.77143778        7
Sc      -1.13143473       3.20018069       0.00000000        8
Sc       3.39430420       0.00000000       0.00000000        9
Co       0.00000000       0.00000000       0.00000000       10
Co       1.13143473      -0.80004517       4.15715666       11
Co       1.13143473       4.00022586       1.38571889       12
Co      -1.13143473       0.80004517       4.15715666       13
Co      -1.13143473       3.20018069       2.77143778       14
Co       3.39430420       0.00000000       2.77143778       15
Co       3.39430420       2.40013552       1.38571889       16
