29
Lattice="8.346909331286705 0.0 0.0 4.173454665643353 7.228635523979667 0.0 4.173454665643353 2.4095451746598893 6.815222930309326" Properties=species:S:1:pos:R:3:spacegroup_kinds:I:1 spacegroup="P 1" unit_cell=conventional occupancy="_JSON {\"0\": {\"Ti\": 1.0}, \"1\": {\"Ti\": 1.0}, \"2\": {\"Ti\": 1.0}, \"3\": {\"Ti\": 1.0}, \"4\": {\"Ti\": 1.0}, \"5\": {\"Ti\": 1.0}, \"6\": {\"Ga\": 1.0}, \"7\": {\"Ga\": 1.0}, \"8\": {\"Ga\": 1.0}, \"9\": {\"Ga\": 1.0}, \"10\": {\"Ga\": 1.0}, \"11\": {\"Ga\": 1.0}, \"12\": {\"Ga\": 1.0}, \"13\": {\"Ga\": 1.0}, \"14\": {\"Ga\": 1.0}, \"15\": {\"Ga\": 1.0}, \"16\": {\"Ga\": 1.0}, \"17\": {\"Ga\": 1.0}, \"18\": {\"Ga\": 1.0}, \"19\": {\"Ga\": 1.0}, \"20\": {\"Ga\": 1.0}, \"21\": {\"Ga\": 1.0}, \"22\": {\"Co\": 1.0}, \"23\": {\"Co\": 1.0}, \"24\": {\"Co\": 1.0}, \"25\": {\"Co\": 1.0}, \"26\": {\"Co\": 1.0}, \"27\": {\"Co\": 1.0}, \"28\": {\"Co\": 1.0}}" pbc="T T T"
Ti       9.97621213       5.75976876       2.07729130        0
Ti       6.71760654       5.75976876       2.07729130        1
Ti       8.34690933       2.93773354       2.07729130        2
Ti       6.71760654       3.87841194       4.73793163        3
Ti       9.97621213       3.87841194       4.73793163        4
Ti       8.34690933       6.70044716       4.73793163        5
Ga      12.52036400       7.22863552       2.48152428        6
Ga      12.52036400       4.74914870       5.98804817        7
Ga      10.37306542       8.46837894       5.98804817        8
Ga      14.66766258       8.46837894       5.98804817        9
Ga       4.17345467       2.40954517       4.33369865       10
Ga       4.17345467       4.88903200       0.82717476       11
Ga       6.32075324       1.16980176       0.82717476       12
Ga       2.02615609       1.16980176       0.82717476       13
Ga       8.34690933       4.81909035       0.26434430       14
Ga       8.34690933       1.85558964       4.45536719       15
Ga       5.78044243       6.30084070       4.45536719       16
Ga      10.91337623       6.30084070       4.45536719       17
Ga       8.34690933       4.81909035       6.55087863       18
Ga       8.34690933       7.78259106       2.35985574       19
Ga      10.91337623       3.33734000       2.35985574       20
Ga       5.78044243       3.33734000       2.35985574       21
Co      10.43363666       1.20477259       3.40761147       22
Co      10.43363666       8.43340811       3.40761147       23
Co      12.52036400       4.81909035       3.40761147       24
Co      10.43363666       6.02386294       6.81522293       25
Co      10.43363666       3.61431776       0.00000000       26
Co       4.17345467       0.00000000       0.00000000       27
Co       0.00000000       0.00000000       0.00000000       28
