28
Lattice="5.129182860219207 0.0 0.0 0.0 9.7734170340607 0.0 -0.44352527568912165 0.0 8.303834300966003" Properties=species:S:1:pos:R:3:spacegroup_kinds:I:1 spacegroup="P 1" unit_cell=conventional occupancy="_JSON {\"0\": {\"P\": 1.0}, \"1\": {\"P\": 1.0}, \"2\": {\"P\": 1.0}, \"3\": {\"P\": 1.0}, \"4\": {\"O\": 1.0}, \"5\": {\"O\": 1.0}, \"6\": {\"O\": 1.0}, \"7\": {\"O\": 1.0}, \"8\": {\"O\": 1.0}, \"9\": {\"O\": 1.0}, \"10\": {\"O\": 1.0}, \"11\": {\"O\": 1.0}, \"12\": {\"O\": 1.0}, \"13\": {\"O\": 1.0}, \"14\": {\"O\": 1.0}, \"15\": {\"O\": 1.0}, \"16\": {\"O\": 1.0}, \"17\": {\"O\": 1.0}, \"18\": {\"O\": 1.0}, \"19\": {\"O\": 1.0}, \"20\": {\"Cu\": 1.0}, \"21\": {\"Cu\": 1.0}, \"22\": {\"Cu\": 1.0}, \"23\": {\"Cu\": 1.0}, \"24\": {\"K\": 1.0}, \"25\": {\"K\": 1.0}, \"26\": {\"K\": 1.0}, \"27\": {\"K\": 1.0}}" pbc="T T T"
P        0.76821643       3.08361905       7.80145166        0
P        3.91744115       7.97032757       0.50238264        1
P        1.04497796       0.82520625       3.78997540        2
P        3.64067962       5.71191476       4.51385890        3
O        0.37799460       3.89693631       0.55812225        4
O        4.30766299       8.78364483       7.74571205        5
O        2.26099626       3.37516598       7.85568168        6
O        2.42466132       8.26187450       0.44815262        7
O        0.46820975       1.56287033       7.79010236        8
O        4.21744784       6.44957885       0.51373194        9
O        1.33714328       1.08506016       2.26630149       10
O        3.34851431       5.97176867       6.03753281       11
O        1.53513123       2.07803875       4.56768563       12
O        3.15052635       6.96474727       3.73614867       13
O        4.63658009       0.63039138       4.01064674       14
O        0.04907749       5.51709989       4.29318756       15
O        0.04475635       3.71551124       6.47292156       16
O        4.64090123       8.60221975       1.83091274       17
O        2.83947627       4.49505655       3.96520132       18
O        1.84618131       9.38176506       4.33863298       19
Cu       4.05972749       4.98002337       7.52726651       20
Cu       0.62593009       0.09331485       0.77656780       21
Cu       1.08583483       3.92392458       4.81362379       22
Cu       3.59982276       8.81063310       3.49021051       23
K        3.32156044       1.23434829       6.34826518       24
K        1.36409715       6.12105681       1.95556912       25
K        3.63180335       2.65882023       2.17638835       26
K        1.05385424       7.54552875       6.12744595       27
