28
Lattice="5.7209191670626 0.0 0.0 -2.8604595835812967 4.954461331672502 0.0 0.0 0.0 14.955086309359" Properties=species:S:1:pos:R:3:spacegroup_kinds:I:1 spacegroup="P 1" unit_cell=conventional occupancy="_JSON {\"0\": {\"K\": 1.0}, \"1\": {\"K\": 1.0}, \"2\": {\"K\": 1.0}, \"3\": {\"K\": 1.0}, \"4\": {\"K\": 1.0}, \"5\": {\"K\": 1.0}, \"6\": {\"Si\": 1.0}, \"7\": {\"Si\": 1.0}, \"8\": {\"N\": 1.0}, \"9\": {\"N\": 1.0}, \"10\": {\"O\": 1.0}, \"11\": {\"O\": 1.0}, \"12\": {\"O\": 1.0}, \"13\": {\"O\": 1.0}, \"14\": {\"O\": 1.0}, \"15\": {\"O\": 1.0}, \"16\": {\"F\": 1.0}, \"17\": {\"F\": 1.0}, \"18\": {\"F\": 1.0}, \"19\": {\"F\": 1.0}, \"20\": {\"F\": 1.0}, \"21\": {\"F\": 1.0}, \"22\": {\"F\": 1.0}, \"23\": {\"F\": 1.0}, \"24\": {\"F\": 1.0}, \"25\": {\"F\": 1.0}, \"26\": {\"F\": 1.0}, \"27\": {\"F\": 1.0}}" pbc="T T T"
K        0.00000000       3.30297422       6.16527841        0
K        0.00000000       3.30297422       1.31226474        1
K        2.86045958       1.65148711      13.64282157        2
K        2.86045958       1.65148711       8.78980790        3
K        0.00000000       0.00000000       3.73877158        4
K        0.00000000       0.00000000      11.21631473        5
Si       0.00000000       0.00000000       7.47754315        6
Si       0.00000000       0.00000000       0.00000000        7
N        0.00000000       3.30297422      11.21631473        8
N        2.86045958       1.65148711       3.73877158        9
O        1.76483271       2.28404758       3.73877158       10
O        2.86045958       0.38636616       3.73877158       11
O        1.09562688       2.67041375      11.21631473       12
O        0.00000000       4.56809517      11.21631473       13
O        3.95608646       2.28404758       3.73877158       14
O       -1.09562688       2.67041375      11.21631473       15
F       -1.64478045       4.25258866      13.96317290       16
F       -1.64478045       4.25258866       8.46945656       17
F        0.00000000       1.40374535      13.96317290       18
F        0.00000000       1.40374535       8.46945656       19
F        4.50524003       0.70187267       6.48562975       20
F        4.50524003       0.70187267       0.99191341       21
F        2.86045958       3.55071598       6.48562975       22
F        2.86045958       3.55071598       0.99191341       23
F        1.64478045       4.25258866      13.96317290       24
F        1.64478045       4.25258866       8.46945656       25
F        1.21567913       0.70187267       6.48562975       26
F        1.21567913       0.70187267       0.99191341       27
