6
Lattice="4.2665014827773 0.0 0.0 0.0 2.9047245129102 0.0 0.0 0.0 4.5575788848114" Properties=species:S:1:pos:R:3:spacegroup_kinds:I:1 spacegroup="P 1" unit_cell=conventional occupancy="_JSON {\"0\": {\"Ti\": 1.0}, \"1\": {\"Ti\": 1.0}, \"2\": {\"Fe\": 1.0}, \"3\": {\"Fe\": 1.0}, \"4\": {\"H\": 1.0}, \"5\": {\"H\": 1.0}}" pbc="T T T"
Ti       3.19987611       1.45236226       3.40939019        0
Ti       1.06662537       1.45236226       1.14818870        1
Fe       3.19987611       0.00000000       1.37883035        2
Fe       1.06662537       0.00000000       3.17874853        3
H        2.13325074       0.00000000       0.00000000        4
H        0.00000000       0.00000000       0.00000000        5
