12
Lattice="5.9954260227 0.0 0.0 0.0 3.6181123506 0.0 0.0 0.0 6.7952414929" Properties=species:S:1:pos:R:3:spacegroup_kinds:I:1 spacegroup="P 1" unit_cell=conventional occupancy="_JSON {\"0\": {\"Ti\": 1.0}, \"1\": {\"Ti\": 1.0}, \"2\": {\"Ti\": 1.0}, \"3\": {\"Ti\": 1.0}, \"4\": {\"Fe\": 1.0}, \"5\": {\"Fe\": 1.0}, \"6\": {\"Fe\": 1.0}, \"7\": {\"Fe\": 1.0}, \"8\": {\"P\": 1.0}, \"9\": {\"P\": 1.0}, \"10\": {\"P\": 1.0}, \"11\": {\"P\": 1.0}}" pbc="T T T"
Ti       5.87041037       2.71358426       4.63367030        0
Ti       2.87269735       2.71358426       5.55919194        1
Ti       0.12501566       0.90452809       2.16157119        2
Ti       3.12272867       0.90452809       1.23604955        3
Fe       5.10236020       2.71358426       0.41429872        4
Fe       2.10464719       2.71358426       2.98332202        5
Fe       0.89306582       0.90452809       6.38094277        6
Fe       3.89077883       0.90452809       3.81191947        7
P        4.34358403       2.71358426       2.57573446        8
P        1.34587102       2.71358426       0.82188629        9
P        1.65184199       0.90452809       4.21950703       10
P        4.64955500       0.90452809       5.97335521       11
