18
Lattice="7.603817651877871 0.0 0.0 0.42940889357730255 7.591683007418461 0.0 -4.016613272727587 -3.7958415037092306 5.222685897033875" Properties=species:S:1:pos:R:3:spacegroup_kinds:I:1 spacegroup="P 1" unit_cell=conventional occupancy="_JSON {\"0\": {\"K\": 1.0}, \"1\": {\"K\": 1.0}, \"2\": {\"K\": 1.0}, \"3\": {\"K\": 1.0}, \"4\": {\"K\": 1.0}, \"5\": {\"K\": 1.0}, \"6\": {\"S\": 1.0}, \"7\": {\"S\": 1.0}, \"8\": {\"O\": 1.0}, \"9\": {\"O\": 1.0}, \"10\": {\"O\": 1.0}, \"11\": {\"O\": 1.0}, \"12\": {\"O\": 1.0}, \"13\": {\"O\": 1.0}, \"14\": {\"O\": 1.0}, \"15\": {\"O\": 1.0}, \"16\": {\"F\": 1.0}, \"17\": {\"F\": 1.0}}" pbc="T T T"
K        2.22301108       5.69376226       0.60932822        0
K       -0.41851739       0.44285898       2.61134295        1
K        4.43513066       3.35298252       2.61134295        2
K        1.79360219      -1.89792075       4.61335768        3
K        6.02491991       5.69376226       0.00000000        4
K        2.00830664       1.89792075       0.00000000        5
S        0.21470445       3.79584150       2.61134295        6
S        3.80190883       0.00000000       2.61134295        7
O        4.43837699       0.60148491       1.39247267        8
O       -0.42176372       3.19435659       1.39247267        9
O        1.68835426       3.51145304       2.61134295       10
O        4.00262231      -1.48735829       2.61134295       11
O        0.01399097       5.28319979       2.61134295       12
O        2.32825901       0.28438846       2.61134295       13
O        4.43837699       0.60148491       3.83021322       14
O       -0.42176372       3.19435659       3.83021322       15
F        0.00000000       0.00000000       0.00000000       16
F        4.01661327       3.79584150       0.00000000       17
