29
Lattice="8.406912468780739 0.0 0.0 4.20345623439037 7.280599765356271 0.0 4.20345623439037 2.4268665884520906 6.8642152869181405" Properties=species:S:1:pos:R:3:spacegroup_kinds:I:1 spacegroup="P 1" unit_cell=conventional occupancy="_JSON {\"0\": {\"Ti\": 1.0}, \"1\": {\"Ti\": 1.0}, \"2\": {\"Ti\": 1.0}, \"3\": {\"Ti\": 1.0}, \"4\": {\"Ti\": 1.0}, \"5\": {\"Ti\": 1.0}, \"6\": {\"Ga\": 1.0}, \"7\": {\"Ga\": 1.0}, \"8\": {\"Ga\": 1.0}, \"9\": {\"Ga\": 1.0}, \"10\": {\"Ga\": 1.0}, \"11\": {\"Ga\": 1.0}, \"12\": {\"Ga\": 1.0}, \"13\": {\"Ga\": 1.0}, \"14\": {\"Ga\": 1.0}, \"15\": {\"Ga\": 1.0}, \"16\": {\"Ga\": 1.0}, \"17\": {\"Ga\": 1.0}, \"18\": {\"Ga\": 1.0}, \"19\": {\"Ga\": 1.0}, \"20\": {\"Ga\": 1.0}, \"21\": {\"Ga\": 1.0}, \"22\": {\"Ni\": 1.0}, \"23\": {\"Ni\": 1.0}, \"24\": {\"Ni\": 1.0}, \"25\": {\"Ni\": 1.0}, \"26\": {\"Ni\": 1.0}, \"27\": {\"Ni\": 1.0}, \"28\": {\"Ni\": 1.0}}" pbc="T T T"
Ti      10.14941375       5.85976676       2.00936130        0
Ti       6.66441118       5.85976676       2.00936130        1
Ti       8.40691247       2.84166600       2.00936130        2
Ti       6.66441118       3.84769959       4.85485398        3
Ti      10.14941375       3.84769959       4.85485398        4
Ti       8.40691247       6.86580035       4.85485398        5
Ga      12.61036870       7.28059977       2.53766058        6
Ga      12.61036870       4.81939593       6.01832843        7
Ga      10.47890366       8.51120168       6.01832843        8
Ga      14.74183375       8.51120168       6.01832843        9
Ga       4.20345623       2.42686659       4.32655470       10
Ga       4.20345623       4.88807042       0.84588686       11
Ga       6.33492128       1.19626467       0.84588686       12
Ga       2.07199119       1.19626467       0.84588686       13
Ga       8.40691247       4.85373318       0.34839192       14
Ga       8.40691247       1.94637811       4.46001288       15
Ga       5.88906913       6.30741071       4.46001288       16
Ga      10.92475581       6.30741071       4.46001288       17
Ga       8.40691247       4.85373318       6.51582336       18
Ga       8.40691247       7.76108824       2.40420240       19
Ga      10.92475581       3.40005565       2.40420240       20
Ga       5.88906913       3.40005565       2.40420240       21
Ni       0.00000000       0.00000000       0.00000000       22
Ni       2.10172812       1.21343329       3.43210764       23
Ni       6.30518435       1.21343329       3.43210764       24
Ni       4.20345623       4.85373318       3.43210764       25
Ni       6.30518435       3.64029988       0.00000000       26
Ni      10.50864059       3.64029988       0.00000000       27
Ni       4.20345623       0.00000000       0.00000000       28
