28
Lattice="7.244326766945314 0.0 0.0 0.0 7.0174724929 0.0 -7.171659336165194 0.0 12.79871237300389" Properties=species:S:1:pos:R:3:spacegroup_kinds:I:1 spacegroup="P 1" unit_cell=conventional occupancy="_JSON {\"0\": {\"Na\": 1.0}, \"1\": {\"Na\": 1.0}, \"2\": {\"Na\": 1.0}, \"3\": {\"Na\": 1.0}, \"4\": {\"Na\": 1.0}, \"5\": {\"Na\": 1.0}, \"6\": {\"Na\": 1.0}, \"7\": {\"Na\": 1.0}, \"8\": {\"Na\": 1.0}, \"9\": {\"Na\": 1.0}, \"10\": {\"Na\": 1.0}, \"11\": {\"Na\": 1.0}, \"12\": {\"Ga\": 1.0}, \"13\": {\"Ga\": 1.0}, \"14\": {\"Ga\": 1.0}, \"15\": {\"Ga\": 1.0}, \"16\": {\"S\": 1.0}, \"17\": {\"S\": 1.0}, \"18\": {\"S\": 1.0}, \"19\": {\"S\": 1.0}, \"20\": {\"S\": 1.0}, \"21\": {\"S\": 1.0}, \"22\": {\"S\": 1.0}, \"23\": {\"S\": 1.0}, \"24\": {\"S\": 1.0}, \"25\": {\"S\": 1.0}, \"26\": {\"S\": 1.0}, \"27\": {\"S\": 1.0}}" pbc="T T T"
Na      -1.92894742       0.25554381       9.05369591        0
Na       1.65688225       3.25319244       2.65433972        1
Na      -1.58421482       3.76428006      10.14437265        2
Na       2.00161485       6.76192868       3.74501647        3
Na      -5.03017988       3.51135185      11.45545010        4
Na      -1.44435021       7.01485689       5.05609391        5
Na       1.51701764       0.00261560       7.74261846        6
Na       5.10284731       3.50612064       1.34326228        7
Na       1.19147413       3.50358372       7.81363892        8
Na       4.77730379       0.00515252       1.41428273        9
Na      -4.70463636       7.01231997      11.38442964       10
Na      -1.11880669       3.51388877       4.98507345       11
Ga      -2.96654529       4.51807277       7.44432597       12
Ga       0.61928437       6.00813597       1.04496978       13
Ga      -0.54661694       1.00933653      11.75374259       14
Ga       3.03921272       2.49939972       5.35438641       15
S       -2.65478047       1.81313236      11.89050838       16
S        0.93104920       1.69560389       5.49115219       17
S       -0.85838177       5.32186860       7.30756018       18
S        2.72744790       5.20434014       0.90820399       19
S       -3.01731364       2.16233076       7.31877523       20
S        0.56851603       1.34640548       0.91941904       21
S       -0.49584860       5.67106701      11.87929333       22
S        3.08998107       4.85514173       5.47993715       23
S        0.56039475       1.73027753       9.91276193       24
S        4.14622442       1.77845872       3.51340574       25
S       -4.07355699       5.23901378       9.28530663       26
S       -0.48772732       5.28719496       2.88595044       27
