9
Lattice="4.8183123456256 0.0 0.0 -2.4091561727627986 4.1727808946133 0.0 0.0 0.0 6.6237636444422" Properties=species:S:1:pos:R:3:spacegroup_kinds:I:1 spacegroup="P 1" unit_cell=conventional occupancy="_JSON {\"0\": {\"V\": 1.0}, \"1\": {\"V\": 1.0}, \"2\": {\"V\": 1.0}, \"3\": {\"Ge\": 1.0}, \"4\": {\"Ge\": 1.0}, \"5\": {\"Ge\": 1.0}, \"6\": {\"Ge\": 1.0}, \"7\": {\"Ge\": 1.0}, \"8\": {\"Ge\": 1.0}}" pbc="T T T"
V        1.20457809       2.08639045       2.20792121        0
V        2.40915617       0.00000000       0.00000000        1
V       -1.20457809       2.08639045       4.41584243        2
Ge      -1.20559737       3.47790590       2.20792121        3
Ge       0.00000000       1.38974999       0.00000000        4
Ge       3.61475355       0.69487500       2.20792121        5
Ge       2.40915617       2.78303090       0.00000000        6
Ge       1.20559737       3.47790590       4.41584243        7
Ge       1.20355880       0.69487500       4.41584243        8
