29
Lattice="7.635980368914278 0.0 0.0 2.065252555622029 7.351389533682792 0.0 2.065252555676762 1.5650047927222066 7.182874638614642" Properties=species:S:1:pos:R:3:spacegroup_kinds:I:1 spacegroup="P 1" unit_cell=conventional occupancy="_JSON {\"0\": {\"Mg\": 1.0}, \"1\": {\"Mg\": 1.0}, \"2\": {\"Mg\": 1.0}, \"3\": {\"Mg\": 1.0}, \"4\": {\"Mg\": 1.0}, \"5\": {\"Mg\": 1.0}, \"6\": {\"Mg\": 1.0}, \"7\": {\"O\": 1.0}, \"8\": {\"O\": 1.0}, \"9\": {\"O\": 1.0}, \"10\": {\"O\": 1.0}, \"11\": {\"O\": 1.0}, \"12\": {\"O\": 1.0}, \"13\": {\"O\": 1.0}, \"14\": {\"O\": 1.0}, \"15\": {\"O\": 1.0}, \"16\": {\"O\": 1.0}, \"17\": {\"O\": 1.0}, \"18\": {\"O\": 1.0}, \"19\": {\"O\": 1.0}, \"20\": {\"O\": 1.0}, \"21\": {\"Ge\": 1.0}, \"22\": {\"Ge\": 1.0}, \"23\": {\"Ge\": 1.0}, \"24\": {\"Ge\": 1.0}, \"25\": {\"Ge\": 1.0}, \"26\": {\"Ge\": 1.0}, \"27\": {\"Ge\": 1.0}, \"28\": {\"Ge\": 1.0}}" pbc="T T T"
Mg       4.99257107       3.78326497       6.95447767        0
Mg       4.99257107       7.60046367       2.21603373        1
Mg       3.09898163       6.16554156       4.96684091        2
Mg       8.66750385       2.75085277       2.21603373        3
Mg       6.77391441       5.13312935       0.22839697        4
Mg       6.77391441       1.31593066       4.96684091        5
Mg       0.00000000       0.00000000       0.00000000        6
O        0.94067198       0.71282137       2.30677756        7
O        0.94067198       2.40564900       0.20540179        8
O        8.51118851       6.44959900       5.19567208        9
O        9.19607708       8.66142073       6.97747284       10
O        2.57040840       0.25497360       0.20540179       11
O        3.25529697       2.46679533       1.98720256       12
O       10.82581350       6.51074532       6.97747284       13
O       10.82581350       8.20357296       4.87609708       14
O        8.01760904       4.19697835       3.38100450       15
O        5.55745822       4.21132453       1.46989187       16
O        5.55745822       2.33272799       3.80187013       17
O        6.20902726       6.58366634       3.38100450       18
O        6.20902726       4.70506980       5.71298276       19
O        3.74887644       4.71941597       3.80187013       20
Ge       9.18242796       6.95825008       2.48292985       21
Ge       9.18242796       3.90732507       6.27016712       22
Ge       7.10705333       5.38557500       4.33851495       23
Ge       5.52127542       1.13298096       0.91270752       24
Ge       4.65943215       3.53081933       2.84435969       25
Ge       6.24521006       7.78341337       6.27016712       26
Ge       2.58405752       5.00906926       0.91270752       27
Ge       2.58405752       1.95814425       4.69994478       28
