8
Lattice="9.577340754395188 0.0 0.0 -5.788683939343639 7.629979959094519 0.0 -1.894328407525774 -3.814989979547259 8.578043323870185" Properties=species:S:1:pos:R:3:spacegroup_kinds:I:1 spacegroup="P 1" unit_cell=conventional occupancy="_JSON {\"0\": {\"K\": 1.0}, \"1\": {\"K\": 1.0}, \"2\": {\"K\": 1.0}, \"3\": {\"K\": 1.0}, \"4\": {\"K\": 1.0}, \"5\": {\"K\": 1.0}, \"6\": {\"K\": 1.0}, \"7\": {\"K\": 1.0}}" pbc="T T T"
K       -1.91914611       0.95294955       6.43311051        0
K        3.81347452       2.86204043       2.14493282        1
K        5.76188131      -2.86105481       6.43532667        2
K       -3.86755290       6.67604479       2.14271665        3
K        1.92113104      -0.95393517       6.43532667        4
K       -0.02680263       4.76892515       2.14271665        5
K        3.81347452       2.86204043       6.43311051        6
K       -1.91914611       0.95294955       2.14493281        7
