20
Lattice="8.7949821633 0.0 0.0 0.0 5.4184812292 0.0 0.0 0.0 6.9873378579" Properties=species:S:1:pos:R:3:spacegroup_kinds:I:1 spacegroup="P 1" unit_cell=conventional occupancy="_JSON {\"0\": {\"K\": 1.0}, \"1\": {\"K\": 1.0}, \"2\": {\"K\": 1.0}, \"3\": {\"K\": 1.0}, \"4\": {\"N\": 1.0}, \"5\": {\"N\": 1.0}, \"6\": {\"N\": 1.0}, \"7\": {\"N\": 1.0}, \"8\": {\"O\": 1.0}, \"9\": {\"O\": 1.0}, \"10\": {\"O\": 1.0}, \"11\": {\"O\": 1.0}, \"12\": {\"O\": 1.0}, \"13\": {\"O\": 1.0}, \"14\": {\"O\": 1.0}, \"15\": {\"O\": 1.0}, \"16\": {\"O\": 1.0}, \"17\": {\"O\": 1.0}, \"18\": {\"O\": 1.0}, \"19\": {\"O\": 1.0}}" pbc="T T T"
K        3.55830350       4.06386092       1.53412148        0
K        7.95579458       4.06386092       1.95954745        1
K        5.23667866       1.35462031       5.45321638        2
K        0.83918758       1.35462031       5.02779041        3
N        3.40309114       4.06386092       4.77482714        4
N        7.80058222       4.06386092       5.70617964        5
N        5.39189102       1.35462031       2.21251071        6
N        0.99439994       1.35462031       1.28115822        7
O        3.04571649       5.15936500       4.25661497        8
O        3.04571649       2.96835684       4.25661497        9
O        7.44320757       5.15936500       6.22439181       10
O        7.44320757       2.96835684       6.22439181       11
O        5.74926567       2.45012439       2.73072288       12
O        5.74926567       0.25911622       2.73072288       13
O        1.35177459       2.45012439       0.76294605       14
O        1.35177459       0.25911622       0.76294605       15
O        4.15028353       4.06386092       5.79788307       16
O        8.54777461       4.06386092       4.68312372       17
O        4.64469863       1.35462031       1.18945479       18
O        0.24720755       1.35462031       2.30421414       19
