16
Lattice="9.8923890316279 0.0 0.0 0.0 2.8573448355105 0.0 0.0 0.0 5.1143293503594" Properties=species:S:1:pos:R:3:spacegroup_kinds:I:1 spacegroup="P 1" unit_cell=conventional occupancy="_JSON {\"0\": {\"Li\": 1.0}, \"1\": {\"Li\": 1.0}, \"2\": {\"Li\": 1.0}, \"3\": {\"Li\": 1.0}, \"4\": {\"Ti\": 1.0}, \"5\": {\"Ti\": 1.0}, \"6\": {\"Ti\": 1.0}, \"7\": {\"Ti\": 1.0}, \"8\": {\"O\": 1.0}, \"9\": {\"O\": 1.0}, \"10\": {\"O\": 1.0}, \"11\": {\"O\": 1.0}, \"12\": {\"O\": 1.0}, \"13\": {\"O\": 1.0}, \"14\": {\"O\": 1.0}, \"15\": {\"O\": 1.0}}" pbc="T T T"
Li       3.92090283       2.14300863       2.94438486        0
Li       8.86709734       2.14300863       4.72710916        1
Li       5.97148620       0.71433621       2.16994449        2
Li       1.02529169       0.71433621       0.38722019        3
Ti       1.27894283       2.14300863       2.91136160        4
Ti       6.22513735       2.14300863       4.76013243        5
Ti       8.61344620       0.71433621       2.20296775        6
Ti       3.66725169       0.71433621       0.35419692        7
O        2.51379285       2.14300863       4.52068438        8
O        7.45998737       2.14300863       3.15080965        9
O        7.37859618       0.71433621       0.59364497       10
O        2.43240167       0.71433621       1.96351970       11
O        4.89939895       2.14300863       1.22702843       12
O        9.84559346       2.14300863       1.33013625       13
O        4.99299009       0.71433621       3.88730092       14
O        0.04679557       0.71433621       3.78419310       15
