30
Lattice="6.294029264124445 0.0 0.0 0.0 6.4636296624479 0.0 -3.201435977329952 0.0 9.312743319558532" Properties=species:S:1:pos:R:3:spacegroup_kinds:I:1 spacegroup="P 1" unit_cell=conventional occupancy="_JSON {\"0\": {\"Na\": 1.0}, \"1\": {\"Na\": 1.0}, \"2\": {\"Na\": 1.0}, \"3\": {\"Na\": 1.0}, \"4\": {\"Na\": 1.0}, \"5\": {\"Na\": 1.0}, \"6\": {\"V\": 1.0}, \"7\": {\"V\": 1.0}, \"8\": {\"P\": 1.0}, \"9\": {\"P\": 1.0}, \"10\": {\"P\": 1.0}, \"11\": {\"P\": 1.0}, \"12\": {\"O\": 1.0}, \"13\": {\"O\": 1.0}, \"14\": {\"O\": 1.0}, \"15\": {\"O\": 1.0}, \"16\": {\"O\": 1.0}, \"17\": {\"O\": 1.0}, \"18\": {\"O\": 1.0}, \"19\": {\"O\": 1.0}, \"20\": {\"O\": 1.0}, \"21\": {\"O\": 1.0}, \"22\": {\"O\": 1.0}, \"23\": {\"O\": 1.0}, \"24\": {\"O\": 1.0}, \"25\": {\"O\": 1.0}, \"26\": {\"O\": 1.0}, \"27\": {\"O\": 1.0}, \"28\": {\"O\": 1.0}, \"29\": {\"O\": 1.0}}" pbc="T T T"
Na      -1.25949542       6.36845478       7.82382072        0
Na      -1.25949542       3.32698972       7.82382072        1
Na       4.35208871       3.13663995       1.48892260        2
Na       4.35208871       0.09517489       1.48892260        3
Na       1.14141777       4.84772225       1.80775670        4
Na       1.95117551       1.61590742       7.50498662        5
V        3.12032174       4.84772225       5.37980719        6
V       -0.02772846       1.61590742       3.93293613        7
P        1.81482256       4.84772225       8.41760088        8
P        1.27777073       1.61590742       0.89514244        9
P       -0.06374737       4.84772225       4.67468403       10
P        3.15634066       1.61590742       4.63805929       11
O        3.20190341       2.85847775       5.57239958       12
O        3.20190341       0.37333708       5.57239958       13
O       -0.10931012       6.09029258       3.74034374       14
O       -0.10931012       3.60515191       3.74034374       15
O        0.99099958       6.13412176       8.17678607       16
O        0.99099958       3.56132273       8.17678607       17
O        2.10159371       2.90230693       1.13595725       18
O        2.10159371       0.32950790       1.13595725       19
O        5.56017788       4.84772225       0.55977044       20
O       -2.46758459       1.61590742       8.75297288       21
O        3.08933248       4.84772225       7.41465288       22
O        0.00326080       1.61590742       1.89809044       23
O        3.25492033       4.84772225       3.76319901       24
O       -0.16232705       1.61590742       5.54954431       25
O        1.26754540       4.84772225       5.48647374       26
O        1.82504789       1.61590742       3.82626958       27
O       -1.20750987       4.84772225       5.73242447       28
O        4.30010315       1.61590742       3.58031885       29
