20
Lattice="5.7784163488 0.0 0.0 -2.8892081744 5.0042553518 0.0 0.0 0.0 11.63210592" Properties=species:S:1:pos:R:3:spacegroup_kinds:I:1 spacegroup="P 1" unit_cell=conventional occupancy="_JSON {\"0\": {\"Ti\": 1.0}, \"1\": {\"Ti\": 1.0}, \"2\": {\"Ti\": 1.0}, \"3\": {\"Ti\": 1.0}, \"4\": {\"Ti\": 1.0}, \"5\": {\"Ti\": 1.0}, \"6\": {\"Ni\": 1.0}, \"7\": {\"Ni\": 1.0}, \"8\": {\"S\": 1.0}, \"9\": {\"S\": 1.0}, \"10\": {\"S\": 1.0}, \"11\": {\"S\": 1.0}, \"12\": {\"S\": 1.0}, \"13\": {\"S\": 1.0}, \"14\": {\"S\": 1.0}, \"15\": {\"S\": 1.0}, \"16\": {\"S\": 1.0}, \"17\": {\"S\": 1.0}, \"18\": {\"S\": 1.0}, \"19\": {\"S\": 1.0}}" pbc="T T T"
Ti      -0.00000000       3.33617023       5.87702948        0
Ti      -0.00000000       3.33617023      11.57112940        1
Ti       2.88920817       1.66808512       5.75507644        2
Ti       2.88920817       1.66808512       0.06097652        3
Ti       0.00000000       0.00000000       0.00000000        4
Ti       0.00000000       0.00000000       5.81605296        5
Ni      -0.00000000       3.33617023       2.90802648        6
Ni       2.88920817       1.66808512       8.72407944        7
S        1.89311026       3.34941259       1.50700186        8
S        0.95802335       4.96903063       4.30905110        9
S        1.95412126       3.31418787      10.12510406       10
S        3.84723152       0.03522472       7.32305482       11
S       -1.89311026       3.34941259       4.30905110       12
S       -0.93508691       1.69006748       1.50700186       13
S        0.93508691       1.69006748       4.30905110       14
S       -0.95802335       4.96903063       1.50700186       15
S        1.93118483       0.03522472      10.12510406       16
S        0.99609791       1.65484276       7.32305482       17
S        3.82429509       3.31418787       7.32305482       18
S        4.78231844       1.65484276      10.12510406       19
