9
Lattice="5.0293909429 0.0 0.0 -2.5146954715000014 4.355580322099999 0.0 0.0 0.0 5.51863014" Properties=species:S:1:pos:R:3:spacegroup_kinds:I:1 spacegroup="P 1" unit_cell=conventional occupancy="_JSON {\"0\": {\"Si\": 1.0}, \"1\": {\"Si\": 1.0}, \"2\": {\"Si\": 1.0}, \"3\": {\"O\": 1.0}, \"4\": {\"O\": 1.0}, \"5\": {\"O\": 1.0}, \"6\": {\"O\": 1.0}, \"7\": {\"O\": 1.0}, \"8\": {\"O\": 1.0}}" pbc="T T T"
Si       1.19983438       2.07817410       0.00000000        0
Si       2.62972219       0.00000000       3.67908676        1
Si      -1.31486110       2.27740622       1.83954338        2
O       -0.83164087       3.65824468       2.55101053        3
O       -0.23761691       1.80623586       0.71146715        4
O        1.06925779       3.24668011       4.39055391        5
O        3.58395326       1.10890021       2.96761961        6
O        1.68305460       0.69733565       4.80716299        7
O        2.27707856       2.54934446       1.12807623        8
