14
Lattice="5.176907915363015 0.0 0.0 0.2577386458842636 5.17048801899453 0.0 -2.6349548481378817 2.769573829756037 6.20615396974336" Properties=species:S:1:pos:R:3:spacegroup_kinds:I:1 spacegroup="P 1" unit_cell=conventional occupancy="_JSON {\"0\": {\"P\": 1.0}, \"1\": {\"P\": 1.0}, \"2\": {\"O\": 1.0}, \"3\": {\"O\": 1.0}, \"4\": {\"O\": 1.0}, \"5\": {\"O\": 1.0}, \"6\": {\"O\": 1.0}, \"7\": {\"O\": 1.0}, \"8\": {\"O\": 1.0}, \"9\": {\"O\": 1.0}, \"10\": {\"O\": 1.0}, \"11\": {\"O\": 1.0}, \"12\": {\"V\": 1.0}, \"13\": {\"V\": 1.0}}" pbc="T T T"
P        4.15806352       5.27506833       1.55153849        0
P       -1.35837181       2.66499352       4.65461548        1
O        2.77664546       5.40021916       2.22144628        2
O       -1.41459186       4.05092927       5.32452327        3
O        4.21428357       3.88913258       0.88163070        4
O        0.02304626       2.53984269       3.98470769        5
O        0.10775662       5.39930356       2.62325969        6
O       -1.28080353       6.71646283       5.72633668        7
O        4.08049524       1.22359902       0.47981729        8
O        2.69193510       2.54075828       3.58289428        9
O        1.00614574       2.27635389       1.55153849       10
O        1.79354597       5.66370796       4.65461548       11
V        1.27097653       1.38478691       3.10307698       12
V        5.30577724       2.58524401       0.00000000       13
