14
Lattice="7.567010445520229 0.0 0.0 -5.846526692975334 4.803933046050826 0.0 -4.737687309986615 -1.0132956556059118 5.812675627431333" Properties=species:S:1:pos:R:3:spacegroup_kinds:I:1 spacegroup="P 1" unit_cell=conventional occupancy="_JSON {\"0\": {\"Si\": 1.0}, \"1\": {\"Si\": 1.0}, \"2\": {\"Si\": 1.0}, \"3\": {\"Si\": 1.0}, \"4\": {\"O\": 1.0}, \"5\": {\"O\": 1.0}, \"6\": {\"O\": 1.0}, \"7\": {\"O\": 1.0}, \"8\": {\"O\": 1.0}, \"9\": {\"O\": 1.0}, \"10\": {\"O\": 1.0}, \"11\": {\"O\": 1.0}, \"12\": {\"O\": 1.0}, \"13\": {\"O\": 1.0}}" pbc="T T T"
Si      -2.02265696       3.78629191       4.50988206        0
Si      -3.66925158       1.66595028       2.89436725        1
Si       0.87541574       2.74837424       2.91830837        2
Si      -0.77117888       0.62803261       1.30279356        3
O        3.79377293       0.10390117       3.33037211        4
O       -2.63185729       2.40518062       3.90795409        5
O        0.54319202       3.97812048       1.90472154        6
O       -0.03591150       1.47546688       2.48230351        7
O        0.17917484       0.50029181       0.00000000        8
O       -5.11293216       2.39561051       2.90633781        9
O       -3.28115980       1.84919766       1.29017936       10
O       -8.08987231       3.57139313       5.18962232       11
O       -2.06639995       1.41414276       0.62305331       12
O       -6.87511246       3.13633824       4.52249626       13
