8
Lattice="5.031727134880572 0.0 0.0 0.0 3.4174554496929 0.0 -1.0321433430659077 0.0 9.546828919588359" Properties=species:S:1:pos:R:3:spacegroup_kinds:I:1 spacegroup="P 1" unit_cell=conventional occupancy="_JSON {\"0\": {\"Ti\": 1.0}, \"1\": {\"Ti\": 1.0}, \"2\": {\"S\": 1.0}, \"3\": {\"S\": 1.0}, \"4\": {\"S\": 1.0}, \"5\": {\"S\": 1.0}, \"6\": {\"S\": 1.0}, \"7\": {\"S\": 1.0}}" pbc="T T T"
Ti       3.25821921       2.56309159       6.11137481        0
Ti       0.74136458       0.85436386       3.43545411        1
S        1.76806400       2.56309159       1.93469220        2
S        2.23151979       0.85436386       7.61213672        3
S        4.74867892       2.56309159       1.92983343        4
S       -0.74909513       0.85436386       7.61699549        5
S        0.74176516       2.56309159       5.21174370        6
S        3.25781864       0.85436386       4.33508522        7
