16
Lattice="8.3825402128765 0.0 0.0 -4.191270106488222 7.259492772580744 0.0 0.0 0.0 5.5285684828305" Properties=species:S:1:pos:R:3:spacegroup_kinds:I:1 spacegroup="P 1" unit_cell=conventional occupancy="_JSON {\"0\": {\"Sc\": 1.0}, \"1\": {\"Sc\": 1.0}, \"2\": {\"Sc\": 1.0}, \"3\": {\"Sc\": 1.0}, \"4\": {\"Sc\": 1.0}, \"5\": {\"Sc\": 1.0}, \"6\": {\"Sc\": 1.0}, \"7\": {\"Sc\": 1.0}, \"8\": {\"Sc\": 1.0}, \"9\": {\"Sc\": 1.0}, \"10\": {\"Si\": 1.0}, \"11\": {\"Si\": 1.0}, \"12\": {\"Si\": 1.0}, \"13\": {\"Si\": 1.0}, \"14\": {\"Si\": 1.0}, \"15\": {\"Si\": 1.0}}" pbc="T T T"
Sc       3.13205914       5.42488556       1.38214212        0
Sc      -2.07284817       7.25949277       1.38214212        1
Sc       7.32332924       1.83460722       1.38214212        2
Sc       1.05921097       1.83460722       4.14642636        3
Sc       6.26411827       0.00000000       4.14642636        4
Sc      -3.13205914       5.42488556       4.14642636        5
Sc       4.19127011       2.41983092       1.38214212        6
Sc       0.00000000       4.83966185       1.38214212        7
Sc       0.00000000       4.83966185       4.14642636        8
Sc       4.19127011       2.41983092       4.14642636        9
Si       1.55651979       2.69597136       1.38214212       10
Si       5.26950063       0.00000000       1.38214212       11
Si      -2.63475032       4.56352141       1.38214212       12
Si       2.63475032       4.56352141       4.14642636       13
Si      -1.07823052       7.25949277       4.14642636       14
Si      -1.55651979       2.69597136       4.14642636       15
