4
Lattice="3.8405923664948984 0.24170333478748965 0.18237128148384074 -0.11669025664381308 3.7537167609819364 0.2137408426299341 0.3910996458369671 -0.39573546288745653 4.258915117330902" Properties=species:S:1:pos:R:3:spacegroup_kinds:I:1 spacegroup="P 1" unit_cell=conventional occupancy="_JSON {\"0\": {\"Al\": 1}, \"1\": {\"Al\": 1}, \"2\": {\"Al\": 1}, \"3\": {\"Al\": 1}}" pbc="T T T"
Al       0.09934283      -0.02765286       0.12953771        0
Al       0.44181067       1.63215997       2.18950058        1
Al       2.43168856       0.07647088       2.12674832        2
Al       1.97046306       1.90502650       0.10491011        3
