19
Lattice="6.36933 0.0 0.0 -3.1846649999999985 5.516001585086339 0.0 0.0 0.0 8.37582" Properties=species:S:1:pos:R:3:spacegroup_kinds:I:1 spacegroup="P -3 m 1" unit_cell=conventional occupancy="_JSON {\"0\": {\"Cl\": 1.0}, \"1\": {\"Cs\": 1.0}, \"2\": {\"Zn\": 1.0}, \"3\": {\"Cu\": 1.0}, \"4\": {\"O\": 1.0}, \"5\": {\"O\": 1.0}, \"6\": {\"O\": 1.0}, \"7\": {\"V\": 1.0}}" pbc="T T T"
Cl       0.00000000       0.00000000       0.00000000        0
Cs       0.00000000       0.00000000       4.18791000        1
Zn      -0.00000318       3.67733623       6.10898808        2
Zn       3.18466818       1.83866536       2.26683192        2
Cu       1.59233250       2.75800079       0.00000000        3
Cu       0.00000000       5.51600159       0.00000000        3
Cu      -1.59233250       2.75800079       0.00000000        3
O       -0.00000318       3.67733623       4.19712340        4
O        3.18466818       1.83866536       4.17869660        4
O        1.37383263       2.88415175       2.01857262        5
O        1.81083237       2.63184984       6.35724738        5
O        0.00000000       5.26369967       2.01857262        5
O        3.18466500       0.25230191       6.35724738        5
O       -1.37383263       2.88415175       2.01857262        5
O        4.55849763       2.63184984       6.35724738        5
O       -0.00000318       3.67733623       7.95870416        6
O        3.18466818       1.83866536       0.41711584        6
V       -0.00000318       3.67733623       2.55336873        7
V        3.18466818       1.83866536       5.82245127        7
