72
Lattice="5.618935769109086 0.06716146873787335 -0.07387511146010652 -0.11557436300895582 5.714852153800292 -0.07090361771355322 0.08185908892339894 0.008587621388747893 5.858684950611357" Properties=species:S:1:pos:R:3 pbc="T T T"
C        2.22147285       2.60124550       1.67527959
C        2.65725989       2.30845576       4.51631936
S        1.07969126       1.10006572       0.13517047
S        1.01694155       0.98156959       3.06483161
H        0.89353159       0.90695165       1.47458713
H        1.00029540       0.85701899       4.60778820
H        2.47498954       2.07292773       0.90008979
H        0.67379220       2.47969141       4.41892095
H        2.31134458       1.31977223       4.43925083
H        2.62743347       2.15694284       2.43797473
H        2.30748628       1.22994410       3.09125585
H        2.26347983       0.86308147       1.50878045
H        0.91367132       2.25592052       0.03124489
H        2.10695149       2.80418596       3.70024685
H        2.09978219       2.70207907       5.24926018
H        2.25434147       0.99439519       0.26888967
H        1.20539668       2.26435641       1.65807751
H        0.89537139       2.38875188       3.15480030
C        2.21711421       5.56562602       1.49113718
C        2.41624849       5.22242351       4.60183576
S        0.81606537       3.86218243       0.03603260
S        0.78527770       3.96659001       3.21157678
H        0.80434717       4.05605904       1.64779071
H        0.93422500       3.85186773       4.69471532
H        2.50442217       5.22804854       0.45609859
H        0.72077290       5.33906937       4.49604323
H        2.31717174       3.96734915       4.49693119
H        2.56778775       5.22222219       2.37986527
H        2.22902040       3.85196665       3.14869398
H        2.34433885       3.58527704       1.64673975
H        0.84470554       5.40617811       0.05840638
H        1.99671197       5.54855457       3.50130672
H        2.08317186       5.61572105       5.36217192
H        2.24507999       3.75634807       0.08566110
H        1.07897622       5.21785878       1.57408873
H        0.91649752       5.50248875       3.07563864
C        5.00702436       2.64120808       1.38169606
C        5.31177340       2.37147485       4.74911971
S        3.71200176       1.08705772       0.14170917
S        3.65528562       1.17577437       3.14966033
H        3.75790644       1.04092167       1.75042079
H        3.72580693       1.05056854       4.75847148
H        5.27620620       2.19110906       0.72655249
H        3.45549014       2.35145298       4.53131451
H        5.06902036       1.38961995       4.42547021
H        5.55432499       2.17226212       2.39800039
H        5.25847655       0.95521058       3.07841401
H        5.30943307       0.65365939       1.61239065
H        3.72824112       2.56365056       0.00343087
H        4.76468758       2.81611420       3.67587093
H        4.94586418       2.80041500       5.29217235
H        5.15901914       1.10334705       0.05480475
H        4.16708018       2.52162446       1.46960121
H        3.80900285       2.39255665       3.13540358
C        5.03934170       5.42401051       1.63445899
C        5.29791570       5.30508392       4.65702299
S        3.64891186       3.83895544       0.02077710
S        3.63278522       3.91120799       3.07313041
H        3.64868514       4.07200481       1.57598974
H        3.95355826       3.82284322       4.77599102
H        5.38003938       5.01944916       0.57404629
H        3.49629777       5.34159912       4.56040646
H        5.16478731       4.19240389       4.39728146
H        5.19005965       5.06336203       2.48039462
H        5.14074702       3.81114921       3.03753430
H        5.15946336       3.58344805       1.57384797
H        3.65028654       5.22859731       0.12745287
H        4.89502452       5.72965124       3.71610086
H        4.72526078       5.52941375       5.37622654
H        5.12938518       3.98297065       0.47606123
H        3.97980460       5.44522380       1.64867992
H        3.75069944       5.31592396       3.09714023
