18
Lattice="2.8543384645146386 0.0 0.0 -0.0321824300359775 2.8541510613420122 0.0 8.368530528467502e-05 9.433627496953962e-05 5.834786715830881" Properties=species:S:1:pos:R:3 pbc="T T T"
C        2.20679425       2.58337952       1.66471498
C        2.50102791       2.29284286       4.58214334
S        0.94294919       1.01063483       0.20617663
S        0.94298032       1.01097712       3.12351797
H        0.86958656       1.08423771       1.66513703
H        1.01686809       0.93846788       4.58254532
H        2.61547281       2.17941668       0.81143638
H        0.66506626       2.45530220       4.58208902
H        2.35015194       1.27273284       4.58198887
H        2.61563095       2.17977906       2.51807144
H        2.37039555       1.01098924       3.12319241
H        2.39035527       0.74932327       1.66439711
H        0.92676844       2.43756433       0.20584648
H        2.09257123       2.69684130       3.72880705
H        2.09272493       2.69620600       5.43581117
H        2.36994745       1.01098353       0.20570903
H        1.18853725       2.42115536       1.66465780
H        0.92697715       2.43787160       3.12347102
