36
Lattice="5.728013657025081 0.03195394771001227 0.027862157749793517 0.06755809709824373 2.824610183361588 0.20448113482790695 0.0744912548107797 0.02417706768413812 5.806922732516194" Properties=species:S:1:pos:R:3 pbc="T T T"
C        2.37554561       2.56220133       1.91752689
C        2.80044579       2.27875323       4.71344198
S        1.14204962       1.08311097       0.23530752
S        1.07562888       0.97240607       3.13911268
H        0.95589272       0.89349645       1.56667368
H        1.05535072       0.85213715       4.66433019
H        2.62012159       2.03375575       1.12315130
H        0.78906744       2.45943261       4.59701416
H        2.40662804       1.30279956       4.54772591
H        2.77042780       2.12232597       2.64592674
H        2.39344873       1.21197617       3.19097954
H        2.34011926       0.84411915       1.59975423
H        1.03869459       2.22255918       0.25133744
H        2.26124061       2.77004925       3.93170489
H        2.25188901       2.67251002       5.46552130
H        2.34398202       0.96863433       0.39449152
H        1.33285395       2.23346852       1.86850853
H        1.01672511       2.36318184       3.34903458
C        5.29298097       2.68513274       1.78276736
C        5.48122839       2.35127189       4.84834127
S        3.80021774       1.00377857       0.18555254
S        3.76575904       1.11597740       3.33524074
H        3.78850230       1.20115474       1.78926014
H        3.91107432       1.00553679       4.80064020
H        5.57134821       2.34742746       0.72854299
H        3.75784215       2.47736147       4.72351933
H        5.33424922       1.10892738       4.65478916
H        5.63257608       2.34615621       2.63720018
H        5.23677686       0.99254962       3.29780055
H        5.34277229       0.72486561       1.78709642
H        3.89152281       2.53136767       0.32788181
H        5.07279509       2.67296875       3.78214764
H        5.15707269       2.74470289       5.62781592
H        5.25651455       0.88913811       0.26064584
H        4.12822750       2.34552179       1.83390264
H        3.95964525       2.63546961       3.31925581
