40
Lattice="8.682 0.0 0.0 0.0 8.682 0.0 0.0 0.0 9.896" Properties=species:S:1:pos:R:3:spacegroup_kinds:I:1 pbc="T T T"
Eu       0.00000000       0.00000000       0.00009896        0
Eu       2.17050000       2.17050000       4.94809896        0
Ge       2.17050000       2.17050000       9.06671520        1
Ge       0.00000000       0.00000000       4.11871520        1
Ge       0.00000000       2.17050000       7.44911504        2
Ge       2.17050000       0.00000000       7.44911504        2
Ge       2.17050000       0.00000000       2.50111504        2
Ge       0.00000000       2.17050000       2.50111504        2
Ni       2.17050000       2.17050000       1.50884312        3
Ni       0.00000000       0.00000000       6.45684312        3
Eu       0.00000000       4.34100000       0.00009896        0
Eu       2.17050000       6.51150000       4.94809896        0
Ge       2.17050000       6.51150000       9.06671520        1
Ge       0.00000000       4.34100000       4.11871520        1
Ge       0.00000000       6.51150000       7.44911504        2
Ge       2.17050000       4.34100000       7.44911504        2
Ge       2.17050000       4.34100000       2.50111504        2
Ge       0.00000000       6.51150000       2.50111504        2
Ni       2.17050000       6.51150000       1.50884312        3
Ni       0.00000000       4.34100000       6.45684312        3
Eu       4.34100000       0.00000000       0.00009896        0
Eu       6.51150000       2.17050000       4.94809896        0
Ge       6.51150000       2.17050000       9.06671520        1
Ge       4.34100000       0.00000000       4.11871520        1
Ge       4.34100000       2.17050000       7.44911504        2
Ge       6.51150000       0.00000000       7.44911504        2
Ge       6.51150000       0.00000000       2.50111504        2
Ge       4.34100000       2.17050000       2.50111504        2
Ni       6.51150000       2.17050000       1.50884312        3
Ni       4.34100000       0.00000000       6.45684312        3
Eu       4.34100000       4.34100000       0.00009896        0
Eu       6.51150000       6.51150000       4.94809896        0
Ge       6.51150000       6.51150000       9.06671520        1
Ge       4.34100000       4.34100000       4.11871520        1
Ge       4.34100000       6.51150000       7.44911504        2
Ge       6.51150000       4.34100000       7.44911504        2
Ge       6.51150000       4.34100000       2.50111504        2
Ge       4.34100000       6.51150000       2.50111504        2
Ni       6.51150000       6.51150000       1.50884312        3
Ni       4.34100000       4.34100000       6.45684312        3
