16
Lattice="3.51321654 -4.357e-05 0.00016121 5.298e-05 6.08975711 -0.00013299 -0.00035609 0.00032004 6.33634963" Properties=species:S:1:pos:R:3 enthalpy=-1629761.81031625 pbc="T T T"
H        1.45866006       0.36386321       5.62096804
H        3.21554416       5.44297911       1.44835021
H        3.21555251       1.38661663       0.44333456
H        1.45900806       4.43171448       0.44320716
H        3.21544100       3.40865637       3.61128796
H        1.45876586       0.36360519       3.61129453
Lu       1.45877059       4.42804709       4.61636715
Lu       3.21552212       3.41217252       1.44782719
H        3.21533927       3.40857433       5.62099585
H        3.21543474       1.38690020       2.45304031
H        3.21538190       5.44215153       4.61634158
H        1.45888751       4.43165147       2.45288406
H        1.45877064       2.39728163       4.61589324
H        1.45890589       2.39813672       1.44788671
Lu       3.21535410       1.38320672       4.61651891
Lu       1.45889289       0.36736455       1.44780440
