16
Lattice="4.894026702536566 0.047092517130556746 -0.06934190562948177 1.7020725193549306 4.76010873729097 -0.0862533910243719 -0.8913143646301059 1.2414192295461381 2.022240521244939" Properties=species:S:1:pos:R:3 pbc="T T T"
H        1.21004140       0.87284161       0.45631159
H        2.09519189       1.49586137       1.35823398
H        1.29815649       2.77128456       1.33253684
S        2.86511214       2.04202757       0.30291995
H        2.03560247       3.07539439       0.17592425
H        2.73769641       3.79804797       1.36994571
H        1.90046906       4.93336509       1.48292246
S        3.63931476       4.47517653       0.16389141
H        3.55294507       0.92130656       0.24177242
H        4.42747206       1.48275910       1.31780734
H        3.52707791       2.90331516       1.34346360
S        5.15209840       2.19417009       0.19273761
H        4.47930595       3.09430166       0.18092648
H        5.26062464       3.99672400       1.32098685
H        4.42671999       5.06803135       1.15383443
S        6.03692132       4.44590609       0.37740750
