70
Lattice="3.50645815599864 0.0 0.0 1.75322907799932 3.03668184040196 0.0 0.0 0.0 137.60106292605002" Properties=species:S:1:pos:R:3 pbc="T T T"
Cs       3.50645816       2.02445456     131.10359092
Cs       1.75322908       1.01222728     124.36983669
Cs       3.50645816       2.02445456     117.63608247
Cs       1.75322908       1.01222728     110.90232824
Cs       3.50645816       2.02445456     104.16857401
Cs       1.75322908       1.01222728      97.43481978
Cs       3.50645816       2.02445456      90.70106555
Cs       1.75322908       1.01222728      83.96731132
Cs       3.50645816       2.02445456      77.23355709
Cs       1.75322908       1.01222728      70.49980287
Y        0.00000000       0.00000000     127.73671381
Y        0.00000000       0.00000000     121.00295958
Y        0.00000000       0.00000000     114.26920535
Y        0.00000000       0.00000000     107.53545112
Y        0.00000000       0.00000000     100.80169689
Y        0.00000000       0.00000000      94.06794267
Y        0.00000000       0.00000000      87.33418844
Y        0.00000000       0.00000000      80.60043421
Y        0.00000000       0.00000000      73.86667998
Y        0.00000000       0.00000000      67.13292575
Te       1.75322908       1.01222728      -2.44604161
Te       1.75322908       1.01222728       7.90179392
Te       3.50645816       2.02445456       4.53777887
Te       3.50645816       2.02445456       0.91797344
Te       1.75322908       1.01222728      11.52159935
Te       1.75322908       1.01222728      21.86943489
Te       3.50645816       2.02445456      18.50541983
Te       3.50645816       2.02445456      14.88561441
Te       1.75322908       1.01222728      25.48924031
Te       1.75322908       1.01222728      35.83707585
Te       3.50645816       2.02445456      32.47306080
Te       3.50645816       2.02445456      28.85325537
Te       1.75322908       1.01222728      39.45688128
Te       1.75322908       1.01222728      49.80471681
Te       3.50645816       2.02445456      46.44070176
Te       3.50645816       2.02445456      42.82089633
Te       1.75322908       1.01222728      53.42452224
Te       1.75322908       1.01222728      63.77235778
Te       3.50645816       2.02445456      60.40834272
Te       3.50645816       2.02445456      56.78853729
Mo       1.75322908       1.01222728       2.72787616
Mo       3.50645816       2.02445456      -4.25594433
Mo       1.75322908       1.01222728      16.69551712
Mo       3.50645816       2.02445456       9.71169664
Mo       1.75322908       1.01222728      30.66315808
Mo       3.50645816       2.02445456      23.67933760
Mo       1.75322908       1.01222728      44.63079904
Mo       3.50645816       2.02445456      37.64697856
Mo       1.75322908       1.01222728      58.59844001
Mo       3.50645816       2.02445456      51.61461953
O        3.50645816       2.02445456     122.12199988
O        3.50645816       2.02445456     126.61767351
O        1.75322908       1.01222728     128.85575411
O        1.75322908       1.01222728     119.88391928
O        3.50645816       2.02445456     108.65449142
O        3.50645816       2.02445456     113.15016505
O        1.75322908       1.01222728     115.38824565
O        1.75322908       1.01222728     106.41641082
O        3.50645816       2.02445456      95.18698297
O        3.50645816       2.02445456      99.68265660
O        1.75322908       1.01222728     101.92073719
O        1.75322908       1.01222728      92.94890237
O        3.50645816       2.02445456      81.71947451
O        3.50645816       2.02445456      86.21514814
O        1.75322908       1.01222728      88.45322874
O        1.75322908       1.01222728      79.48139391
O        3.50645816       2.02445456      68.25196605
O        3.50645816       2.02445456      72.74763968
O        1.75322908       1.01222728      74.98572028
O        1.75322908       1.01222728      66.01388545
