8
Lattice="5.594832865623216 0.1329011024689511 0.13665600069291092 0.21191536272164455 5.303003088371215 -0.20524119578669484 0.16684707425934894 0.046237382268016 5.532574771689764" Properties=species:S:1:pos:R:3 Time=0.0 pbc="T T T"
Si       0.09934283      -0.02765286       0.12953771
Si       1.79800480       1.32370472       1.31917000
Si       3.21921668       2.87143904      -0.12818747
Si       4.50528495       3.99580395       1.23855885
Si       2.92923242      -0.29308681       2.48963182
Si       4.26178129       1.25753841       4.26346225
Si       0.00777640       2.39215950       2.95679654
Si       1.63762478       4.05866127       3.74471454
